Cs64 Pb64 I64 Br128
1.0
  25.6565799711999993    0.0000000000000000    0.0000000000000000
   0.0000000000000000   25.6565799711999993    0.0000000000000000
   0.0000000000000000    0.0000000000000000   25.6565799711999993
Cs Pb I Br
64 64 64 128
direct
   0.1250000000000000    0.1250000000000000    0.1250000000000000 Cs
   0.1250000000000000    0.1250000000000000    0.3750000000000000 Cs
   0.1250000000000000    0.1250000000000000    0.6250000000000000 Cs
   0.1250000000000000    0.1250000000000000    0.8749999999999999 Cs
   0.1250000000000000    0.3750000000000000    0.1250000000000000 Cs
   0.1250000000000000    0.3750000000000000    0.3750000000000000 Cs
   0.1250000000000000    0.3750000000000000    0.6250000000000000 Cs
   0.1250000000000000    0.3750000000000000    0.8749999999999999 Cs
   0.1250000000000000    0.6250000000000000    0.1250000000000000 Cs
   0.1250000000000000    0.6250000000000000    0.3750000000000000 Cs
   0.1250000000000000    0.6250000000000000    0.6250000000000000 Cs
   0.1250000000000000    0.6250000000000000    0.8749999999999999 Cs
   0.1250000000000000    0.8749999999999999    0.1250000000000000 Cs
   0.1250000000000000    0.8749999999999999    0.3750000000000000 Cs
   0.1250000000000000    0.8749999999999999    0.6250000000000000 Cs
   0.1250000000000000    0.8749999999999999    0.8749999999999999 Cs
   0.3750000000000000    0.1250000000000000    0.1250000000000000 Cs
   0.3750000000000000    0.1250000000000000    0.3750000000000000 Cs
   0.3750000000000000    0.1250000000000000    0.6250000000000000 Cs
   0.3750000000000000    0.1250000000000000    0.8749999999999999 Cs
   0.3750000000000000    0.3750000000000000    0.1250000000000000 Cs
   0.3750000000000000    0.3750000000000000    0.3750000000000000 Cs
   0.3750000000000000    0.3750000000000000    0.6250000000000000 Cs
   0.3750000000000000    0.3750000000000000    0.8749999999999999 Cs
   0.3750000000000000    0.6250000000000000    0.1250000000000000 Cs
   0.3750000000000000    0.6250000000000000    0.3750000000000000 Cs
   0.3750000000000000    0.6250000000000000    0.6250000000000000 Cs
   0.3750000000000000    0.6250000000000000    0.8749999999999999 Cs
   0.3750000000000000    0.8749999999999999    0.1250000000000000 Cs
   0.3750000000000000    0.8749999999999999    0.3750000000000000 Cs
   0.3750000000000000    0.8749999999999999    0.6250000000000000 Cs
   0.3750000000000000    0.8749999999999999    0.8749999999999999 Cs
   0.6250000000000000    0.1250000000000000    0.1250000000000000 Cs
   0.6250000000000000    0.1250000000000000    0.3750000000000000 Cs
   0.6250000000000000    0.1250000000000000    0.6250000000000000 Cs
   0.6250000000000000    0.1250000000000000    0.8749999999999999 Cs
   0.6250000000000000    0.3750000000000000    0.1250000000000000 Cs
   0.6250000000000000    0.3750000000000000    0.3750000000000000 Cs
   0.6250000000000000    0.3750000000000000    0.6250000000000000 Cs
   0.6250000000000000    0.3750000000000000    0.8749999999999999 Cs
   0.6250000000000000    0.6250000000000000    0.1250000000000000 Cs
   0.6250000000000000    0.6250000000000000    0.3750000000000000 Cs
   0.6250000000000000    0.6250000000000000    0.6250000000000000 Cs
   0.6250000000000000    0.6250000000000000    0.8749999999999999 Cs
   0.6250000000000000    0.8749999999999999    0.1250000000000000 Cs
   0.6250000000000000    0.8749999999999999    0.3750000000000000 Cs
   0.6250000000000000    0.8749999999999999    0.6250000000000000 Cs
   0.6250000000000000    0.8749999999999999    0.8749999999999999 Cs
   0.8749999999999999    0.1250000000000000    0.1250000000000000 Cs
   0.8749999999999999    0.1250000000000000    0.3750000000000000 Cs
   0.8749999999999999    0.1250000000000000    0.6250000000000000 Cs
   0.8749999999999999    0.1250000000000000    0.8749999999999999 Cs
   0.8749999999999999    0.3750000000000000    0.1250000000000000 Cs
   0.8749999999999999    0.3750000000000000    0.3750000000000000 Cs
   0.8749999999999999    0.3750000000000000    0.6250000000000000 Cs
   0.8749999999999999    0.3750000000000000    0.8749999999999999 Cs
   0.8749999999999999    0.6250000000000000    0.1250000000000000 Cs
   0.8749999999999999    0.6250000000000000    0.3750000000000000 Cs
   0.8749999999999999    0.6250000000000000    0.6250000000000000 Cs
   0.8749999999999999    0.6250000000000000    0.8749999999999999 Cs
   0.8749999999999999    0.8749999999999999    0.1250000000000000 Cs
   0.8749999999999999    0.8749999999999999    0.3750000000000000 Cs
   0.8749999999999999    0.8749999999999999    0.6250000000000000 Cs
   0.8749999999999999    0.8749999999999999    0.8749999999999999 Cs
   0.0000000000000000    0.0000000000000000    0.0000000000000000 Pb
   0.0000000000000000    0.0000000000000000    0.2500000000000000 Pb
   0.0000000000000000    0.0000000000000000    0.5000000000000000 Pb
   0.0000000000000000    0.0000000000000000    0.7500000000000000 Pb
   0.0000000000000000    0.2500000000000000    0.0000000000000000 Pb
   0.0000000000000000    0.2500000000000000    0.2500000000000000 Pb
   0.0000000000000000    0.2500000000000000    0.5000000000000000 Pb
   0.0000000000000000    0.2500000000000000    0.7500000000000000 Pb
   0.0000000000000000    0.5000000000000000    0.0000000000000000 Pb
   0.0000000000000000    0.5000000000000000    0.2500000000000000 Pb
   0.0000000000000000    0.5000000000000000    0.5000000000000000 Pb
   0.0000000000000000    0.5000000000000000    0.7500000000000000 Pb
   0.0000000000000000    0.7500000000000000    0.0000000000000000 Pb
   0.0000000000000000    0.7500000000000000    0.2500000000000000 Pb
   0.0000000000000000    0.7500000000000000    0.5000000000000000 Pb
   0.0000000000000000    0.7500000000000000    0.7500000000000000 Pb
   0.2500000000000000    0.0000000000000000    0.0000000000000000 Pb
   0.2500000000000000    0.0000000000000000    0.2500000000000000 Pb
   0.2500000000000000    0.0000000000000000    0.5000000000000000 Pb
   0.2500000000000000    0.0000000000000000    0.7500000000000000 Pb
   0.2500000000000000    0.2500000000000000    0.0000000000000000 Pb
   0.2500000000000000    0.2500000000000000    0.2500000000000000 Pb
   0.2500000000000000    0.2500000000000000    0.5000000000000000 Pb
   0.2500000000000000    0.2500000000000000    0.7500000000000000 Pb
   0.2500000000000000    0.5000000000000000    0.0000000000000000 Pb
   0.2500000000000000    0.5000000000000000    0.2500000000000000 Pb
   0.2500000000000000    0.5000000000000000    0.5000000000000000 Pb
   0.2500000000000000    0.5000000000000000    0.7500000000000000 Pb
   0.2500000000000000    0.7500000000000000    0.0000000000000000 Pb
   0.2500000000000000    0.7500000000000000    0.2500000000000000 Pb
   0.2500000000000000    0.7500000000000000    0.5000000000000000 Pb
   0.2500000000000000    0.7500000000000000    0.7500000000000000 Pb
   0.5000000000000000    0.0000000000000000    0.0000000000000000 Pb
   0.5000000000000000    0.0000000000000000    0.2500000000000000 Pb
   0.5000000000000000    0.0000000000000000    0.5000000000000000 Pb
   0.5000000000000000    0.0000000000000000    0.7500000000000000 Pb
   0.5000000000000000    0.2500000000000000    0.0000000000000000 Pb
   0.5000000000000000    0.2500000000000000    0.2500000000000000 Pb
   0.5000000000000000    0.2500000000000000    0.5000000000000000 Pb
   0.5000000000000000    0.2500000000000000    0.7500000000000000 Pb
   0.5000000000000000    0.5000000000000000    0.0000000000000000 Pb
   0.5000000000000000    0.5000000000000000    0.2500000000000000 Pb
   0.5000000000000000    0.5000000000000000    0.5000000000000000 Pb
   0.5000000000000000    0.5000000000000000    0.7500000000000000 Pb
   0.5000000000000000    0.7500000000000000    0.0000000000000000 Pb
   0.5000000000000000    0.7500000000000000    0.2500000000000000 Pb
   0.5000000000000000    0.7500000000000000    0.5000000000000000 Pb
   0.5000000000000000    0.7500000000000000    0.7500000000000000 Pb
   0.7500000000000000    0.0000000000000000    0.0000000000000000 Pb
   0.7500000000000000    0.0000000000000000    0.2500000000000000 Pb
   0.7500000000000000    0.0000000000000000    0.5000000000000000 Pb
   0.7500000000000000    0.0000000000000000    0.7500000000000000 Pb
   0.7500000000000000    0.2500000000000000    0.0000000000000000 Pb
   0.7500000000000000    0.2500000000000000    0.2500000000000000 Pb
   0.7500000000000000    0.2500000000000000    0.5000000000000000 Pb
   0.7500000000000000    0.2500000000000000    0.7500000000000000 Pb
   0.7500000000000000    0.5000000000000000    0.0000000000000000 Pb
   0.7500000000000000    0.5000000000000000    0.2500000000000000 Pb
   0.7500000000000000    0.5000000000000000    0.5000000000000000 Pb
   0.7500000000000000    0.5000000000000000    0.7500000000000000 Pb
   0.7500000000000000    0.7500000000000000    0.0000000000000000 Pb
   0.7500000000000000    0.7500000000000000    0.2500000000000000 Pb
   0.7500000000000000    0.7500000000000000    0.5000000000000000 Pb
   0.7500000000000000    0.7500000000000000    0.7500000000000000 Pb
   0.0000000000000000    0.1250000000000000    0.2500000000000000 I
   0.1250000000000000    0.0000000000000000    0.2500000000000000 I
   0.0000000000000000    0.0000000000000000    0.6250000000000000 I
   0.1250000000000000    0.0000000000000000    0.5000000000000000 I
   0.1250000000000000    0.0000000000000000    0.7500000000000000 I
   0.0000000000000000    0.2500000000000000    0.1250000000000000 I
   0.0000000000000000    0.2500000000000000    0.3750000000000000 I
   0.1250000000000000    0.2500000000000000    0.2500000000000000 I
   0.0000000000000000    0.2500000000000000    0.6250000000000000 I
   0.1250000000000000    0.2500000000000000    0.7500000000000000 I
   0.1250000000000000    0.5000000000000000    0.0000000000000000 I
   0.0000000000000000    0.6250000000000000    0.2500000000000000 I
   0.1250000000000000    0.5000000000000000    0.2500000000000000 I
   0.0000000000000000    0.6250000000000000    0.5000000000000000 I
   0.0000000000000000    0.7500000000000000    0.1250000000000000 I
   0.0000000000000000    0.7500000000000000    0.3750000000000000 I
   0.0000000000000000    0.8749999999999999    0.2500000000000000 I
   0.1250000000000000    0.7500000000000000    0.5000000000000000 I
   0.0000000000000000    0.7500000000000000    0.8749999999999999 I
   0.2500000000000000    0.0000000000000000    0.6250000000000000 I
   0.3750000000000000    0.0000000000000000    0.5000000000000000 I
   0.3750000000000000    0.0000000000000000    0.7500000000000000 I
   0.3750000000000000    0.2500000000000000    0.5000000000000000 I
   0.2500000000000000    0.6250000000000000    0.2500000000000000 I
   0.2500000000000000    0.5000000000000000    0.6250000000000000 I
   0.2500000000000000    0.5000000000000000    0.8749999999999999 I
   0.2500000000000000    0.8749999999999999    0.0000000000000000 I
   0.2500000000000000    0.7500000000000000    0.3750000000000000 I
   0.2500000000000000    0.7500000000000000    0.6250000000000000 I
   0.3750000000000000    0.7500000000000000    0.5000000000000000 I
   0.2500000000000000    0.7500000000000000    0.8749999999999999 I
   0.2500000000000000    0.8749999999999999    0.7500000000000000 I
   0.3750000000000000    0.7500000000000000    0.7500000000000000 I
   0.6250000000000000    0.0000000000000000    0.7500000000000000 I
   0.5000000000000000    0.3750000000000000    0.2500000000000000 I
   0.6250000000000000    0.2500000000000000    0.2500000000000000 I
   0.5000000000000000    0.3750000000000000    0.5000000000000000 I
   0.5000000000000000    0.3750000000000000    0.7500000000000000 I
   0.6250000000000000    0.2500000000000000    0.7500000000000000 I
   0.5000000000000000    0.5000000000000000    0.1250000000000000 I
   0.5000000000000000    0.5000000000000000    0.3750000000000000 I
   0.6250000000000000    0.5000000000000000    0.2500000000000000 I
   0.6250000000000000    0.5000000000000000    0.7500000000000000 I
   0.5000000000000000    0.8749999999999999    0.0000000000000000 I
   0.5000000000000000    0.8749999999999999    0.2500000000000000 I
   0.6250000000000000    0.7500000000000000    0.2500000000000000 I
   0.5000000000000000    0.8749999999999999    0.5000000000000000 I
   0.6250000000000000    0.7500000000000000    0.5000000000000000 I
   0.7500000000000000    0.0000000000000000    0.3750000000000000 I
   0.7500000000000000    0.1250000000000000    0.5000000000000000 I
   0.7500000000000000    0.0000000000000000    0.8749999999999999 I
   0.7500000000000000    0.1250000000000000    0.7500000000000000 I
   0.7500000000000000    0.3750000000000000    0.0000000000000000 I
   0.7500000000000000    0.3750000000000000    0.2500000000000000 I
   0.8749999999999999    0.2500000000000000    0.5000000000000000 I
   0.7500000000000000    0.3750000000000000    0.7500000000000000 I
   0.7500000000000000    0.5000000000000000    0.1250000000000000 I
   0.7500000000000000    0.6250000000000000    0.0000000000000000 I
   0.8749999999999999    0.5000000000000000    0.0000000000000000 I
   0.7500000000000000    0.5000000000000000    0.8749999999999999 I
   0.7500000000000000    0.6250000000000000    0.7500000000000000 I
   0.8749999999999999    0.5000000000000000    0.7500000000000000 I
   0.7500000000000000    0.8749999999999999    0.2500000000000000 I
   0.8749999999999999    0.7500000000000000    0.7500000000000000 I
   0.0000000000000000    0.0000000000000000    0.1250000000000000 Br
   0.0000000000000000    0.1250000000000000    0.0000000000000000 Br
   0.1250000000000000    0.0000000000000000    0.0000000000000000 Br
   0.0000000000000000    0.0000000000000000    0.3750000000000000 Br
   0.0000000000000000    0.1250000000000000    0.5000000000000000 Br
   0.0000000000000000    0.0000000000000000    0.8749999999999999 Br
   0.0000000000000000    0.1250000000000000    0.7500000000000000 Br
   0.0000000000000000    0.3750000000000000    0.0000000000000000 Br
   0.1250000000000000    0.2500000000000000    0.0000000000000000 Br
   0.0000000000000000    0.3750000000000000    0.2500000000000000 Br
   0.0000000000000000    0.3750000000000000    0.5000000000000000 Br
   0.1250000000000000    0.2500000000000000    0.5000000000000000 Br
   0.0000000000000000    0.2500000000000000    0.8749999999999999 Br
   0.0000000000000000    0.3750000000000000    0.7500000000000000 Br
   0.0000000000000000    0.5000000000000000    0.1250000000000000 Br
   0.0000000000000000    0.6250000000000000    0.0000000000000000 Br
   0.0000000000000000    0.5000000000000000    0.3750000000000000 Br
   0.0000000000000000    0.5000000000000000    0.6250000000000000 Br
   0.1250000000000000    0.5000000000000000    0.5000000000000000 Br
   0.0000000000000000    0.5000000000000000    0.8749999999999999 Br
   0.0000000000000000    0.6250000000000000    0.7500000000000000 Br
   0.1250000000000000    0.5000000000000000    0.7500000000000000 Br
   0.0000000000000000    0.8749999999999999    0.0000000000000000 Br
   0.1250000000000000    0.7500000000000000    0.0000000000000000 Br
   0.1250000000000000    0.7500000000000000    0.2500000000000000 Br
   0.0000000000000000    0.7500000000000000    0.6250000000000000 Br
   0.0000000000000000    0.8749999999999999    0.5000000000000000 Br
   0.0000000000000000    0.8749999999999999    0.7500000000000000 Br
   0.1250000000000000    0.7500000000000000    0.7500000000000000 Br
   0.2500000000000000    0.0000000000000000    0.1250000000000000 Br
   0.2500000000000000    0.1250000000000000    0.0000000000000000 Br
   0.3750000000000000    0.0000000000000000    0.0000000000000000 Br
   0.2500000000000000    0.0000000000000000    0.3750000000000000 Br
   0.2500000000000000    0.1250000000000000    0.2500000000000000 Br
   0.3750000000000000    0.0000000000000000    0.2500000000000000 Br
   0.2500000000000000    0.1250000000000000    0.5000000000000000 Br
   0.2500000000000000    0.0000000000000000    0.8749999999999999 Br
   0.2500000000000000    0.1250000000000000    0.7500000000000000 Br
   0.2500000000000000    0.2500000000000000    0.1250000000000000 Br
   0.2500000000000000    0.3750000000000000    0.0000000000000000 Br
   0.3750000000000000    0.2500000000000000    0.0000000000000000 Br
   0.2500000000000000    0.2500000000000000    0.3750000000000000 Br
   0.2500000000000000    0.3750000000000000    0.2500000000000000 Br
   0.3750000000000000    0.2500000000000000    0.2500000000000000 Br
   0.2500000000000000    0.2500000000000000    0.6250000000000000 Br
   0.2500000000000000    0.3750000000000000    0.5000000000000000 Br
   0.2500000000000000    0.2500000000000000    0.8749999999999999 Br
   0.2500000000000000    0.3750000000000000    0.7500000000000000 Br
   0.3750000000000000    0.2500000000000000    0.7500000000000000 Br
   0.2500000000000000    0.5000000000000000    0.1250000000000000 Br
   0.2500000000000000    0.6250000000000000    0.0000000000000000 Br
   0.3750000000000000    0.5000000000000000    0.0000000000000000 Br
   0.2500000000000000    0.5000000000000000    0.3750000000000000 Br
   0.3750000000000000    0.5000000000000000    0.2500000000000000 Br
   0.2500000000000000    0.6250000000000000    0.5000000000000000 Br
   0.3750000000000000    0.5000000000000000    0.5000000000000000 Br
   0.2500000000000000    0.6250000000000000    0.7500000000000000 Br
   0.3750000000000000    0.5000000000000000    0.7500000000000000 Br
   0.2500000000000000    0.7500000000000000    0.1250000000000000 Br
   0.3750000000000000    0.7500000000000000    0.0000000000000000 Br
   0.2500000000000000    0.8749999999999999    0.2500000000000000 Br
   0.3750000000000000    0.7500000000000000    0.2500000000000000 Br
   0.2500000000000000    0.8749999999999999    0.5000000000000000 Br
   0.5000000000000000    0.0000000000000000    0.1250000000000000 Br
   0.5000000000000000    0.1250000000000000    0.0000000000000000 Br
   0.6250000000000000    0.0000000000000000    0.0000000000000000 Br
   0.5000000000000000    0.0000000000000000    0.3750000000000000 Br
   0.5000000000000000    0.1250000000000000    0.2500000000000000 Br
   0.6250000000000000    0.0000000000000000    0.2500000000000000 Br
   0.5000000000000000    0.0000000000000000    0.6250000000000000 Br
   0.5000000000000000    0.1250000000000000    0.5000000000000000 Br
   0.6250000000000000    0.0000000000000000    0.5000000000000000 Br
   0.5000000000000000    0.0000000000000000    0.8749999999999999 Br
   0.5000000000000000    0.1250000000000000    0.7500000000000000 Br
   0.5000000000000000    0.2500000000000000    0.1250000000000000 Br
   0.5000000000000000    0.3750000000000000    0.0000000000000000 Br
   0.6250000000000000    0.2500000000000000    0.0000000000000000 Br
   0.5000000000000000    0.2500000000000000    0.3750000000000000 Br
   0.5000000000000000    0.2500000000000000    0.6250000000000000 Br
   0.6250000000000000    0.2500000000000000    0.5000000000000000 Br
   0.5000000000000000    0.2500000000000000    0.8749999999999999 Br
   0.5000000000000000    0.6250000000000000    0.0000000000000000 Br
   0.6250000000000000    0.5000000000000000    0.0000000000000000 Br
   0.5000000000000000    0.6250000000000000    0.2500000000000000 Br
   0.5000000000000000    0.5000000000000000    0.6250000000000000 Br
   0.5000000000000000    0.6250000000000000    0.5000000000000000 Br
   0.6250000000000000    0.5000000000000000    0.5000000000000000 Br
   0.5000000000000000    0.5000000000000000    0.8749999999999999 Br
   0.5000000000000000    0.6250000000000000    0.7500000000000000 Br
   0.5000000000000000    0.7500000000000000    0.1250000000000000 Br
   0.6250000000000000    0.7500000000000000    0.0000000000000000 Br
   0.5000000000000000    0.7500000000000000    0.3750000000000000 Br
   0.5000000000000000    0.7500000000000000    0.6250000000000000 Br
   0.5000000000000000    0.7500000000000000    0.8749999999999999 Br
   0.5000000000000000    0.8749999999999999    0.7500000000000000 Br
   0.6250000000000000    0.7500000000000000    0.7500000000000000 Br
   0.7500000000000000    0.0000000000000000    0.1250000000000000 Br
   0.7500000000000000    0.1250000000000000    0.0000000000000000 Br
   0.8749999999999999    0.0000000000000000    0.0000000000000000 Br
   0.7500000000000000    0.1250000000000000    0.2500000000000000 Br
   0.8749999999999999    0.0000000000000000    0.2500000000000000 Br
   0.7500000000000000    0.0000000000000000    0.6250000000000000 Br
   0.8749999999999999    0.0000000000000000    0.5000000000000000 Br
   0.8749999999999999    0.0000000000000000    0.7500000000000000 Br
   0.7500000000000000    0.2500000000000000    0.1250000000000000 Br
   0.8749999999999999    0.2500000000000000    0.0000000000000000 Br
   0.7500000000000000    0.2500000000000000    0.3750000000000000 Br
   0.8749999999999999    0.2500000000000000    0.2500000000000000 Br
   0.7500000000000000    0.2500000000000000    0.6250000000000000 Br
   0.7500000000000000    0.3750000000000000    0.5000000000000000 Br
   0.7500000000000000    0.2500000000000000    0.8749999999999999 Br
   0.8749999999999999    0.2500000000000000    0.7500000000000000 Br
   0.7500000000000000    0.5000000000000000    0.3750000000000000 Br
   0.7500000000000000    0.6250000000000000    0.2500000000000000 Br
   0.8749999999999999    0.5000000000000000    0.2500000000000000 Br
   0.7500000000000000    0.5000000000000000    0.6250000000000000 Br
   0.7500000000000000    0.6250000000000000    0.5000000000000000 Br
   0.8749999999999999    0.5000000000000000    0.5000000000000000 Br
   0.7500000000000000    0.7500000000000000    0.1250000000000000 Br
   0.7500000000000000    0.8749999999999999    0.0000000000000000 Br
   0.8749999999999999    0.7500000000000000    0.0000000000000000 Br
   0.7500000000000000    0.7500000000000000    0.3750000000000000 Br
   0.8749999999999999    0.7500000000000000    0.2500000000000000 Br
   0.7500000000000000    0.7500000000000000    0.6250000000000000 Br
   0.7500000000000000    0.8749999999999999    0.5000000000000000 Br
   0.8749999999999999    0.7500000000000000    0.5000000000000000 Br
   0.7500000000000000    0.7500000000000000    0.8749999999999999 Br
   0.7500000000000000    0.8749999999999999    0.7500000000000000 Br
