Cs Pb  I 
 1.0000000000000000
     6.4141449927999998    0.0000000000000000    0.0000000000000000
     0.0000000000000000    6.4141449927999998    0.0000000000000000
     0.0000000000000000    0.0000000000000000    6.4141449927999998
 Cs  Pb  I  
   1   1   3
Cartesian
  3.2070724963999999  3.2070724963999999  3.2070724963999999
  0.0000000000000000  0.0000000000000000  0.0000000000000000
  0.0000000000000000  0.0000000000000000  3.2070724963999999
  0.0000000000000000  3.2070724963999999  0.0000000000000000
  3.2070724963999999  0.0000000000000000  0.0000000000000000
