H320 Pb64 C64 I48 Br144 N128            
   1.00000000000000     
    23.8502573213063869    0.0000000000000000    0.0000001155321658
     0.0000000000000000   24.4426618934457807    0.0000000000000000
    -0.0000031278263713    0.0000000000000000   24.6530101186130750
  H               Pb              C               I               Br              N             
   320    64    64    48   144   128
Direct
  0.1602980038192706  0.1197066485306296  0.0809121312353909
  0.0980808191469471  0.0469220323922284  0.0779119225209663
  0.0601794259726151  0.0690275703632807  0.1351298156120045
  0.0949241661463238  0.1561189184611288  0.1783406741643433
  0.1532330376520477  0.1872019984495475  0.1460951779636612
  0.1491504836420072  0.0806227982414153  0.3872507764370950
  0.1655295778033865  0.1280488369807963  0.3069832457067087
  0.1101384218335288  0.1738366199002427  0.3171615784275685
  0.0540629810690686  0.1599375387292770  0.4029441619305770
  0.0767409504583248  0.1054192752990393  0.4448327714764443
  0.1689481633146341  0.1468991191271671  0.6256635263055884
  0.1000565459978199  0.1999122514711328  0.5841135228723173
  0.0521116551771099  0.1462166354524146  0.5802393233444778
  0.0839055732171452  0.0561134979827403  0.6202220444991063
  0.1546527455921707  0.0538464204407613  0.6403239018150213
  0.1793261546481895  0.1155937589664172  0.8687075431528699
  0.1323668537428058  0.1215431409415590  0.7883219164262567
  0.0655126123966284  0.1265414273004760  0.8182130557712383
  0.0673168273016509  0.1254051652972498  0.9232586550149156
  0.1352328115133386  0.1197889243341474  0.9508731529152359
  0.1606153781714393  0.4181108028859005  0.1127080840582153
  0.0948167022335561  0.4197740016235927  0.0424131283444750
  0.0548413437788897  0.3664151368789099  0.0713264277532168
  0.0901136325038429  0.3269292976573348  0.1567924006813697
  0.1521175106205471  0.3563445682610552  0.1836708049348938
  0.1598953800910128  0.3826251447990225  0.4131854125680239
  0.1597549598471380  0.3110933966461333  0.3514722144756120
  0.0942412741099602  0.3299486425296158  0.3235516095217275
  0.0493275040474044  0.4126540469831786  0.3636301720590017
  0.0867876967449863  0.4451715682388314  0.4165134891060112
  0.1816329949020486  0.3730973610823496  0.6163712993877417
  0.1282593518822743  0.3837616612654618  0.5406084565987656
  0.0641648672275530  0.3890132599466719  0.5749761326099215
  0.0746552216378807  0.3794614648019288  0.6803337092650513
  0.1447542469908131  0.3709560920346161  0.7017019177779191
  0.1638899385741376  0.3924217141604909  0.8923111389011482
  0.1172478815309591  0.4355161959125836  0.8210074587960572
  0.0668420514773743  0.3838488514570887  0.8146862257748821
  0.0783558011367224  0.3029446937988959  0.8778557875433112
  0.1329535629335682  0.3076503492503313  0.9248048264720212
  0.1832979924022875  0.6148906586593985  0.1187353396021791
  0.1357418108757708  0.6093878029737733  0.0390351313164879
  0.0685946044603171  0.6096371159111749  0.0684253351687321
  0.0713512965858440  0.6162826471742214  0.1748130970059111
  0.1401254723705642  0.6182366294571099  0.2009537685126921
  0.1458503585624366  0.6760133973568901  0.3629925433218914
  0.0806703981690648  0.6437202192160325  0.3016894499284212
  0.0579142154348794  0.5899765571391177  0.3441574877078568
  0.1081669405361996  0.5830864886209939  0.4343279997751568
  0.1590448762244047  0.6326808284219062  0.4465282288778796
  0.1395967110730439  0.6787434494904006  0.6147954421017175
  0.0605970251211614  0.6520825946589662  0.5663020368867534
  0.0504500146247719  0.5923454661276556  0.6053431622586184
  0.1208225354845388  0.5752611616976454  0.6784834871539058
  0.1729757152811881  0.6246203227359464  0.6868568255008830
  0.1638517314936294  0.5968081897044093  0.8915003692223761
  0.1211947981673200  0.5680736560770615  0.8109627268454884
  0.0749560224357884  0.6234292710378038  0.8090615551230039
  0.0832955318103548  0.6915178617361509  0.8854847141375531
  0.1340359788019891  0.6773189712426636  0.9346845554575659
  0.1569408153881580  0.9050336060094619  0.1359367608609474
  0.1026848252812960  0.9220462759186876  0.0584488995310235
  0.0598734075767104  0.8648418147587896  0.0692035810492809
  0.0827138820360823  0.8068361201575175  0.1499281680428762
  0.1390628750540340  0.8301732343004047  0.1906797318125437
  0.1577498806035642  0.9130038874009261  0.3585818302641717
  0.1462861761706851  0.8278878302376995  0.3199420178084099
  0.0857842714354043  0.8120647721488868  0.3587240423972068
  0.0536644858832404  0.8867617244822229  0.4224421738353348
  0.0952199454568129  0.9455224539683441  0.4241504261256712
  0.1829184792681252  0.8635955728665471  0.6071156767236575
  0.1275918423263400  0.9045783406152097  0.5421919532194805
  0.0733343024298072  0.9210069174698688  0.5880045345949567
  0.0861875321535718  0.8829761002394926  0.6829988160970966
  0.1529332116932405  0.8560570041740161  0.6965662826458368
  0.1634764955460108  0.9197921190413555  0.8755663429059143
  0.0986466472173758  0.9164260444773127  0.8056329888067951
  0.0651266249492620  0.8574471938749603  0.8317669634803062
  0.1032505341845042  0.8208329949487673  0.9181948390758641
  0.1619022989455323  0.8552060622353262  0.9455483586141380
  0.4124048414574101  0.1512215359276087  0.1050270843315296
  0.3844357193679721  0.0762344689767656  0.0536439830519544
  0.3234815211246577  0.0653428462747626  0.0925989805992106
  0.3072610124542448  0.1302914797365090  0.1689275481793559
  0.3575035991177552  0.1813729371463164  0.1782447736844516
  0.4128690797742954  0.1631628120393248  0.3935541142139718
  0.3688958707075955  0.1837343596567931  0.3109454884547823
  0.3169644335911388  0.1343691057627861  0.3193228203935661
  0.3217071642997946  0.0791372599945260  0.4058671366649942
  0.3775149659555170  0.0960261535479186  0.4499548291736954
  0.4115213783296087  0.1475824094835674  0.6487817902085846
  0.3703687160903369  0.1975413412507213  0.5788878983205977
  0.3163749494083286  0.1498786192754027  0.5686074098096994
  0.3181761937362707  0.0666961604204572  0.6301349378299619
  0.3733403739448306  0.0643179397686747  0.6764520207723093
  0.4280957015749108  0.1220845671462996  0.8738435413517640
  0.3860468210366812  0.1208431812641852  0.7907592398383683
  0.3170397094812420  0.1240191644046261  0.8161191976308657
  0.3126599279397458  0.1280810806214908  0.9220570323016815
  0.3791816154531621  0.1278957222416634  0.9529482708409264
  0.4345059008027363  0.3739321022058545  0.1236949782474737
  0.3883162310460472  0.3797154465614813  0.0422985769085454
  0.3219415454579075  0.3894308680859660  0.0716708680944921
  0.3220330444828403  0.3896921731081979  0.1763761045900653
  0.3891883229292036  0.3812956666215443  0.2051911157321176
  0.4105843419185617  0.4100339620511788  0.3689350821664499
  0.3915228835144982  0.3358065015272342  0.3133045897037648
  0.3308635009043810  0.3165349379968745  0.3501426834399795
  0.3066569690988855  0.3759798069887464  0.4288642964836178
  0.3521637488718079  0.4301430770655830  0.4428062086450046
  0.3899941658630828  0.4256005941372502  0.6200963258994772
  0.3161832951417703  0.3986831132155659  0.5646657500161854
  0.3014278580786521  0.3394219241454341  0.6026718363737008
  0.3635369077464813  0.3237359083559308  0.6839121599704535
  0.4154764758284836  0.3726659300588356  0.6955341576386097
  0.4156207086990411  0.3515641466547196  0.8399212580935536
  0.3679713627517163  0.4321400568105399  0.8188429760460543
  0.3179617479501960  0.4232085402891597  0.8698127141289369
  0.3272074593671496  0.3366447675936496  0.9254822377554855
  0.3844405371372696  0.2939019541978105  0.9074925035914821
  0.4279879180255031  0.6134489929809408  0.1296958299493196
  0.3821173107444018  0.6164616640214328  0.0486214095471981
  0.3144343877466304  0.6151943445753860  0.0775007136161263
  0.3144484765761499  0.6100242576603390  0.1825907010476260
  0.3820345027211062  0.6108582857559939  0.2112168667616561
  0.4088707120454781  0.5835526354516583  0.3721854761090326
  0.3872757945563357  0.6612972112017468  0.3217647415083273
  0.3289856697331413  0.6783745252340021  0.3624587685675691
  0.3094814849664917  0.6158416161011171  0.4403674143472050
  0.3543859120924139  0.5597868181748664  0.4477915407702625
  0.4326091064416993  0.6278075978188643  0.6212302948399536
  0.3888712738951182  0.6343960208312162  0.5396661384749167
  0.3201570795582773  0.6350746295428241  0.5667734506212244
  0.3183875751550731  0.6289806186926857  0.6730019469964024
  0.3859565494277316  0.6246384313399622  0.7014244083316377
  0.4153439989086460  0.5806324030124037  0.8920704780677718
  0.3661255698380249  0.5585415402572729  0.8132047659310802
  0.3178104318649434  0.6114461862577544  0.8210116935867766
  0.3328937844865341  0.6732839803317947  0.9028898695879354
  0.3896289404724047  0.6542732955288764  0.9450193098950138
  0.3665446000773776  0.8363578326472388  0.0794243367053127
  0.3655377184606169  0.9324018262651637  0.0639801181364139
  0.3656844314082220  0.9457529520950428  0.1344306889923218
  0.3645604145795148  0.8707959921594127  0.1960035730366725
  0.3646865674530435  0.8039155617618948  0.1700556093077387
  0.4091921639647578  0.8858302478970581  0.3383739038941899
  0.3605531632569981  0.8040311898444634  0.3266474751227177
  0.3122142600554881  0.8181721678706878  0.3778822580416776
  0.3234470145449128  0.9108927328786992  0.4240181447655569
  0.3814203159314752  0.9498729667783156  0.4007875863602096
  0.3925874405768209  0.9217442894382292  0.6038018866268727
  0.3837443809389681  0.8468981897894113  0.5470184861739498
  0.3503620913960796  0.8063075954895793  0.5968768731579642
  0.3504324675026739  0.8464936700175242  0.6909641670665908
  0.3675017187978279  0.9164348415217911  0.6947652589840215
  0.4132180076182818  0.9131908465834160  0.8937735731710595
  0.3602690101380152  0.9288464879322501  0.8159441041810969
  0.3179253241701701  0.8713538592279623  0.8256394555022687
  0.3397244029117366  0.8144198082230355  0.9082751806409279
  0.3949667354701448  0.8390055415074434  0.9494702090424357
  0.6810062039672768  0.1293545182245243  0.1077182949150221
  0.6232659640220831  0.1056118751205493  0.0370616498530490
  0.5668619036175502  0.0869693079414460  0.0797999014576346
  0.5826038650716596  0.1035677869960349  0.1794236518542959
  0.6518562961707420  0.1215454272513275  0.1972309893229149
  0.6586528111556826  0.0877184081915084  0.3679627722433988
  0.6362725695910636  0.1622565957467120  0.3124559713450655
  0.5781264210755216  0.1812650255664041  0.3521104002324728
  0.5578949118892496  0.1222859110525537  0.4331450475481070
  0.6042322035723706  0.0683732753138709  0.4446576974166310
  0.6550053118252619  0.0977377084282677  0.6031075810350854
  0.6183184259505342  0.1751211673044896  0.5591082463477229
  0.5681031075876093  0.1867625841993345  0.6095786463001633
  0.5670841376589286  0.1206418085481791  0.6873389413485124
  0.6164092008043167  0.0675720305256439  0.6849555198971164
  0.6566129633758171  0.1453479368888505  0.8678728222586581
  0.6425626657739533  0.0623341664357799  0.8244549254702517
  0.5799572637540056  0.0479122100337151  0.8602647412757812
  0.5494325368890871  0.1196313171524534  0.9269506104088915
  0.5941554330613226  0.1760435321426375  0.9340167828086157
  0.6815410544813402  0.3828877931866377  0.1173670307540958
  0.6440409024653095  0.3772008710588063  0.0314090387391992
  0.5757741225670595  0.3615507992132816  0.0546964308683389
  0.5696982429604868  0.3426124020596450  0.1551047897242135
  0.6303791573355425  0.3595692875705409  0.1930264425945701
  0.6554324617549518  0.4010868122649685  0.3396597583329192
  0.6239257456565351  0.3141692702668028  0.3142447075847417
  0.5712800988890994  0.3125399443640568  0.3632297685639059
  0.5617966703171036  0.3965381796604142  0.4215284948977891
  0.6100993601327688  0.4489839379743351  0.4100183541349530
  0.6689298417000425  0.3772619639565677  0.6264968464568562
  0.6409682752203409  0.3875012551811883  0.5372663281482728
  0.5699216396855525  0.3731471083577528  0.5505061093911553
  0.5503451631176354  0.3438942959269120  0.6485448034917027
  0.6075937953471412  0.3486723112079788  0.6927079453595270
  0.6587198011455014  0.3505018705545427  0.8579310252072967
  0.6354563993722163  0.4371144541396921  0.8233316509122949
  0.5742066499424627  0.4422770027127799  0.8620217007225328
  0.5528617639372424  0.3621575201617211  0.9229237444231722
  0.6013908377746081  0.3086812534950154  0.9223975897824936
  0.6496488759071772  0.5683482612682605  0.1297074784107629
  0.6066774852532750  0.5741836344595828  0.0446713379823496
  0.5869465196390734  0.6426887119358622  0.0546117401809382
  0.6054475959712906  0.6821503603277610  0.1461831380561861
  0.6497449188388923  0.6427441582916581  0.1884401426891013
  0.6605686388897281  0.6000676476037261  0.3842031855349956
  0.6059330198524688  0.5644272974776775  0.3147069219712388
  0.5553030616895209  0.6158405547626468  0.3192422285003517
  0.5741474052932090  0.6900881165401782  0.3889883782594122
  0.6355309352498016  0.6807546878870393  0.4277992799191974
  0.6801076967284863  0.6360521952942113  0.6186931243038125
  0.6291323139475400  0.6378585373382546  0.5401025830378263
  0.5633861945276049  0.6375644037357271  0.5722325366565736
  0.5704221106475388  0.6332187886015935  0.6783738484729772
  0.6401765511054548  0.6307837044450459  0.7019741908381104
  0.6173648232099110  0.6892622186490699  0.8768399117219989
  0.5302245619939331  0.6517253672822403  0.8736700391390182
  0.5537384092265579  0.5830629430074713  0.8702892988731571
  0.6631084797628468  0.5753559847778255  0.8692592781898463
  0.6972843312419889  0.6393514300327874  0.8742262574652675
  0.6597713936722016  0.9201552448278649  0.1283087081459280
  0.5935882905707863  0.9162463511576451  0.0593355072219235
  0.5592510682081109  0.8589070506280588  0.0872980210436641
  0.6007795090712899  0.8212356720703821  0.1725459329235205
  0.6599628557788257  0.8566690386285162  0.1981236684500749
  0.6604155268105028  0.8823008148470568  0.4205390439961322
  0.6565937377328019  0.8239911451130394  0.3479636572850004
  0.5941734663885202  0.8533969876639607  0.3213306669265352
  0.5544963005245142  0.9320634736640045  0.3765157133599699
  0.5930169656441331  0.9487142117486881  0.4349921573741464
  0.6222562843793477  0.8232054329586203  0.5985986873109190
  0.5421562475721590  0.8684994309130599  0.5679003193183071
  0.5431223563910046  0.9166130079604644  0.6201434024227931
  0.6228170461642795  0.9068853792108983  0.6879594928203480
  0.6701256881861147  0.8535153743241247  0.6750813777404134
  0.6247807134168105  0.9159697493321524  0.9107918762013801
  0.6840117617882010  0.8930476189549510  0.8403267124568082
  0.6421394625723494  0.8365279862979155  0.8193346809779792
  0.5554545383885761  0.8194737171904867  0.8751450627567655
  0.5439553137648161  0.8654070745023023  0.9283483198145412
  0.9072312853749553  0.0892706928484933  0.1152665508222307
  0.8833793729250109  0.1668606930391420  0.0666084243866557
  0.8261987647074616  0.1836760463604250  0.1085605294800020
  0.8095471390159305  0.1174949769770073  0.1872660474129339
  0.8565726931631593  0.0629184948114834  0.1917717502424187
  0.8965238157787022  0.0742963358870127  0.3689494233202170
  0.9027023120868952  0.1336442951836734  0.2952493323256854
  0.8503161945012740  0.1774289844822276  0.3201476742727637
  0.8079823652316349  0.1517340572367540  0.4086937676420457
  0.8341466546034743  0.0910870634798319  0.4391610455703805
  0.9090997806445328  0.1512836619347412  0.6430699544015077
  0.8599304746615568  0.1936013186482123  0.5726649823918836
  0.8080383144648601  0.1429553755005608  0.5706068284687549
  0.8182520220998808  0.0658298093438656  0.6368059093547215
  0.8759662858256615  0.0688111620038858  0.6805504201992225
  0.9297406379041203  0.1203468143710699  0.8866154886410407
  0.8997615771171027  0.1226773816240496  0.7975154042894184
  0.8278535925125541  0.1223744773727510  0.8146649708887472
  0.8082844753200038  0.1189668639388230  0.9188980207261844
  0.8697297764361268  0.1171125728421099  0.9577239815456540
  0.8574062015947250  0.4426848019449392  0.1187811809941397
  0.8553546793869529  0.4005560703440470  0.0365836042451148
  0.8562489951320486  0.3334990572300996  0.0626727467249336
  0.8610021303425291  0.3304147602552184  0.1684786702319840
  0.8604814335887133  0.3957078373424813  0.1989660521023498
  0.8917260180157645  0.4275165688789282  0.3616356565805640
  0.8178295784829778  0.3980724977719256  0.3085873415514088
  0.8015180129030238  0.3423828446935938  0.3517982115424534
  0.8613435866085766  0.3333895186881876  0.4347563837633034
  0.9144854626502378  0.3817856664475920  0.4427604870698347
  0.9048419703822477  0.3462338180732699  0.6026481851962080
  0.8770501972413358  0.4257271369110994  0.5586388176391825
  0.8183701062153035  0.4360441028639636  0.6003010580644226
  0.8025011943506000  0.3629835712720124  0.6717257407051108
  0.8519991661610153  0.3104142093118057  0.6744019922630149
  0.9071869111049142  0.3239817006310201  0.8697899733318429
  0.8404418841110765  0.3078995035936755  0.8027467266675147
  0.8002662762498463  0.3655472316403586  0.8203963115441100
  0.8391549483674260  0.4237760695060429  0.8962831592649788
  0.9017924383158223  0.3986980023002278  0.9261035305149853
  0.9333172256836947  0.6233231024174207  0.1336354242961357
  0.8960595545556730  0.6184610608406921  0.0488152904538492
  0.8253116701905227  0.6194198907442645  0.0703201578088101
  0.8154806364473568  0.6269742299808492  0.1765226456851581
  0.8802577370021871  0.6300195117362486  0.2098689480911489
  0.9110164608335790  0.6250899397123889  0.3852007285786384
  0.8757764509087950  0.5505745269885760  0.3390054107131202
  0.8059961152697248  0.5625537284139385  0.3583839891347809
  0.7923115016248465  0.6433661342363133  0.4213664905949724
  0.8518802453111216  0.6815314185665576  0.4370522724822599
  0.8663000064027754  0.6808664470479319  0.5800996055836681
  0.7869641723168862  0.6290471610614072  0.5589081476266138
  0.8007690237191747  0.5792926279418076  0.6081134896473810
  0.8884812912196048  0.5941800418516330  0.6638651218050204
  0.9274821660801635  0.6536273797835764  0.6468927380494294
  0.8563247225813425  0.6823242016205244  0.8712921270053757
  0.8705025081435064  0.6434014708429029  0.7882788003127291
  0.8694925630036716  0.5755246448561174  0.8126124179660527
  0.8531879205794861  0.5678815980058074  0.9153651931607930
  0.8449770647573217  0.6313120478266067  0.9483309457563003
  0.9299212562508659  0.8697305773532792  0.1248959543839910
  0.8784081719378637  0.8681332753157479  0.0474771315257485
  0.8129595754339429  0.8645905693776992  0.0803141667235644
  0.8210787541826589  0.8676281694333601  0.1865861949312017
  0.8911595564697369  0.8698574494698591  0.2093499466390446
  0.9010295384221411  0.9288377320625337  0.3860341137559455
  0.9201924734583204  0.8559574851990153  0.3276124625530125
  0.8612829636644372  0.8183805918851217  0.3486447010529179
  0.7985056605888682  0.8637276345289594  0.4151008403393278
  0.8215240409513381  0.9280640376309574  0.4400563656225617
  0.9387464917582045  0.8774384858796516  0.6202646827907115
  0.8903148779262340  0.8829287837102108  0.5409705615329148
  0.8232592316871203  0.8796586833783691  0.5710471008192960
  0.8277399465436298  0.8683006456890330  0.6775087653069439
  0.8966596729993310  0.8689622072558485  0.7025387914133214
  0.9203472740633951  0.8564670708203403  0.8820378431419171
  0.9057649970938285  0.9489542967695439  0.8605774308442049
  0.8327904704314268  0.9446221542092745  0.8727117727965212
  0.7983066841834882  0.8571079551402864  0.9107969318013230
  0.8465925516936472  0.8035136127795741  0.9155044427115048
  0.2363987105658916  0.9919526517247561  0.9926318978357813
  0.2440685142976685  0.9979211221573491  0.2536212888062814
  0.2326925884281876  0.0103460130641199  0.5029484465925532
  0.2376185217694433  0.9955878916169900  0.7519376269065398
  0.2406438750248230  0.2390981026899907  0.0046709409037639
  0.2380747498872874  0.2522887876753908  0.2462890744721124
  0.2278450462435281  0.2517532380196835  0.5000463798540131
  0.2390249958231588  0.2448218067386507  0.7610732275223674
  0.2457322992669354  0.5011276927488471  0.9980883375742758
  0.2242640855803583  0.4936552327989690  0.2620076922096192
  0.2283482071603882  0.5012788638669023  0.5013978968425087
  0.2425497239351362  0.4896502491179792  0.7378386632582548
  0.2440915858643456  0.7477193870884880  0.0143113442963036
  0.2404817791222623  0.7354825106197619  0.2488343139625334
  0.2378509377434276  0.7503983671668795  0.4961163481865234
  0.2494210681521367  0.7469412874114935  0.7535363962428961
  0.4867287796655493  0.9950743359053351  0.0019944195854087
  0.4809445343676335  0.9986282077075985  0.2554775193772055
  0.4774062742079522  0.0010837546867574  0.5070799093101970
  0.4930674100351478  0.9947026446455486  0.7525849837414658
  0.4835976204107941  0.2471870062683899  0.0057028887028158
  0.4910849050404824  0.2508460827309331  0.2437913087923748
  0.4865647423535204  0.2503166589433785  0.4930056978541399
  0.4829799633453050  0.2445052388865215  0.7604986168019342
  0.4839935206441162  0.4976377714012472  0.0065746025999775
  0.4771635380190165  0.4954466716485735  0.2564986086134285
  0.4874292657704791  0.5000083789893018  0.5037452730498059
  0.4970485190407388  0.4941786958553290  0.7455070007677326
  0.4907665711684833  0.7436938591818854  0.9960751213035554
  0.4938865509733485  0.7422969004814082  0.2560156581316763
  0.4799357549027868  0.7497376760553421  0.4981173043610244
  0.4916655323528966  0.7563845376352510  0.7412746166945547
  0.7357461914943578  0.9998132021117337  0.0094725179603872
  0.7383339936599476  0.9964503000952457  0.2639100887944811
  0.7297645524421627  0.0065094389027471  0.5086557226930343
  0.7450883237695266  0.9878813005729933  0.7504915261312417
  0.7342211459919710  0.2489456001337208  0.9846672283571146
  0.7388793121538664  0.2504107969383282  0.2433673469227863
  0.7300109384873591  0.2525483633755871  0.5041234440581428
  0.7241307642601749  0.2415386227819985  0.7436278327253744
  0.7329432536340158  0.4954100714917708  0.9978570234978817
  0.7350667125140758  0.4986248115189233  0.2401765938493936
  0.7321523834592883  0.5064540077035881  0.4893603852611226
  0.7386289468957407  0.5061323517378106  0.7370378415531789
  0.7336917670238527  0.7376217575198289  0.9975095565475219
  0.7409451396792079  0.7469221945655228  0.2532517827379973
  0.7349016023352980  0.7652048511826863  0.5050482599596129
  0.7355601306439242  0.7446740063821805  0.7474187418110587
  0.9787690753261047  0.9928822038703131  0.9997365903205750
  0.9859747107901831  0.9928411904565358  0.2576147619550973
  0.9794179975080232  0.0092960684753075  0.4990605397096122
  0.9912083605749802  0.9986503780520156  0.7418118417672066
  0.9820670395830238  0.2571321184716596  0.9951069099797801
  0.9845470029432674  0.2515288620494386  0.2447728926936702
  0.9811025910180996  0.2557762043655549  0.5004653422121382
  0.9820125866694616  0.2446455613053817  0.7382945155054187
  0.9828728921779323  0.5017450551112832  0.9820388353325585
  0.9854859899109947  0.4983565212253930  0.2384712768040587
  0.9787576285677231  0.5126866459494402  0.5036041501031491
  0.9845684224365754  0.5062996934622389  0.7447554102373891
  0.9813283609552362  0.7460061031713034  0.9987975529165517
  0.9907286830305493  0.7456546682893521  0.2558675881740194
  0.9833544475567210  0.7559272784076984  0.4959338668882832
  0.9911765067229176  0.7494763862638191  0.7361451208400276
  0.1270023385681098  0.1168636343837756  0.1116689377073774
  0.1219858983312475  0.1153908137898893  0.3766027827099803
  0.1280603610014436  0.1286564123685194  0.6162659623820335
  0.1335161485949787  0.1195817999365885  0.8695766626392177
  0.1252421959579592  0.3891586530798578  0.1130069067821805
  0.1241964858012076  0.3779580126579761  0.3853380532989634
  0.1361916286221994  0.3780200293896656  0.6211459217123407
  0.1272596179752064  0.3725390121639847  0.8737141234467527
  0.1373018814993128  0.6139340181875625  0.1199946190524587
  0.1202813792297039  0.6401455119698115  0.3736182740260461
  0.1179952479970675  0.6405455318349853  0.6256478214451593
  0.1297376776287035  0.6212829535981454  0.8739055332971069
  0.1224827892525376  0.8771163954172955  0.1253466620124567
  0.1225286834607849  0.8872458077168250  0.3715785621240094
  0.1412398742434705  0.8788322960406851  0.6185598567281948
  0.1315518267697736  0.8872248839500508  0.8754337907789578
  0.3733048241247249  0.1299780680370168  0.1151516013478912
  0.3751290566093991  0.1405405806333658  0.3812810157260072
  0.3736011586261718  0.1319158234639675  0.6287703452357295
  0.3821859605229724  0.1236752070193384  0.8718977057908172
  0.3890327025051816  0.3805958657677965  0.1238323749019644
  0.3736014273324204  0.3843803851507068  0.3769514919248179
  0.3666699796397902  0.3879461001737893  0.6294750221012084
  0.3780457101598107  0.3627646377677980  0.8633021751570763
  0.3819899902276255  0.6131793640797828  0.1298522280006196
  0.3728710858196650  0.6092345509453577  0.3837181496770827
  0.3865957665171334  0.6292725444556719  0.6205171423484418
  0.3790496288833147  0.6055954256324877  0.8801334936547278
  0.3661189693970138  0.8652991377995150  0.1135919820176456
  0.3721107184328285  0.8774413559182881  0.3636117947658036
  0.3750798425939941  0.8834280279594746  0.6198239853614146
  0.3792624660250027  0.8847486648228118  0.8832154566098773
  0.6380702621020351  0.1159336510053934  0.1166334774161079
  0.6222987637893279  0.1137023513974327  0.3775862451751374
  0.6196705335034982  0.1201744495395930  0.6210878759293900
  0.6197735805159704  0.1203314760124298  0.8781740608735362
  0.6374752868750406  0.3708341232307947  0.1125643069264858
  0.6197988094722165  0.3825765706969518  0.3611130652821667
  0.6248916343336828  0.3702441008310190  0.6156206933803465
  0.6204900696337202  0.3715098180282155  0.8716070167366865
  0.6272893372832840  0.6059510184575128  0.1182313641241067
  0.6221272823657394  0.6217267258316244  0.3722345701147768
  0.6341670175154285  0.6359055914822573  0.6212028524313761
  0.6136188933883070  0.6445854743702841  0.8743185718634628
  0.6275747215825093  0.8878070483671627  0.1290242413391910
  0.6257931501869324  0.8864986447914815  0.3914669848723003
  0.6064076832699362  0.8587615267168557  0.6211442538164542
  0.6145869895133150  0.8806636507320565  0.8849258186733920
  0.8712403385450872  0.1141442261513325  0.1284013770533859
  0.8691128772758305  0.1105047824833260  0.3671640005820571
  0.8706142438457909  0.1323329803608889  0.6273817222801309
  0.8845943087301719  0.1207576411749881  0.8779569810033840
  0.8576743890019853  0.3978076059848518  0.1176662885744149
  0.8674808885961466  0.3914766792705072  0.3743448158877645
  0.8669229769639213  0.3678213144658992  0.6162174870769270
  0.8717374656780960  0.3524376172891294  0.8653326981344545
  0.8875216380191099  0.6229505059458402  0.1292527362188055
  0.8657232817084961  0.6171914338859377  0.3859927119641353
  0.8575242248430748  0.6430635959959162  0.6028183014316562
  0.8586323024554009  0.6375358900203565  0.8684198207056153
  0.8841261767604254  0.8681876787994912  0.1284587549546618
  0.8724504609690262  0.8934852901673397  0.3847183388852520
  0.8927799330545060  0.8759373582150887  0.6217823756990892
  0.8782385650492039  0.8744520136276078  0.8851789116611231
  0.2388429368582776  0.0054608782321821  0.1256104462497915
  0.1158123888285696  0.9937328895710197  0.2541939653079578
  0.1112959465849806  0.2411529094940741  0.0123165135692062
  0.2408722216506484  0.3687573022876323  0.9872668691451257
  0.1107763420453761  0.2410691328262287  0.7309463791876966
  0.2529627869613014  0.4948510000388285  0.1231789201194711
  0.1127243197906158  0.4970705135335230  0.9744098587155198
  0.2321361324858494  0.4964262922819439  0.8640993892338488
  0.1128106643615694  0.7503822618099355  0.0182474084415325
  0.2284575783540330  0.8646926568459353  0.2512872664647333
  0.2565139228243729  0.7485760835035257  0.6238955279468231
  0.1099237568250249  0.7537412250478425  0.5231092999798111
  0.2324294596965530  0.8802958971816520  0.4848718840340266
  0.2567657126754239  0.7469015436286430  0.8828554302228893
  0.1209267291715096  0.7461213152615733  0.7556120998698386
  0.4822541828049844  0.1251388456613617  0.2306227737091257
  0.4815383806992238  0.2519062950311102  0.6221586022266969
  0.3578513175176932  0.2615474618563513  0.4812941662126617
  0.3515392953909733  0.4965182717409742  0.2812946816137598
  0.4835237707562522  0.6231977442595413  0.7452829787646842
  0.5142152806627451  0.7504038062691758  0.1274072530058175
  0.4997648682906595  0.8693635730113841  0.2635051533659361
  0.6099020251980668  0.9990593937751826  0.2631807211336986
  0.7316113126669621  0.1150583356383924  0.7684643619062400
  0.7384147781235737  0.2473538002287334  0.1146460632233759
  0.7567254700895549  0.2454302083013262  0.3713916464146876
  0.7321348780506094  0.3818284410280774  0.4802870260210821
  0.7153926344892085  0.3745288654224319  0.7426140381540619
  0.6068167764025502  0.4918799982282490  0.2358819926292862
  0.7568186966674105  0.4968639402034017  0.8647906658353394
  0.7574909448914543  0.7491567744087090  0.1310811411491555
  0.7274525661796949  0.8690756832193132  0.0007020261525419
  0.6068344139622139  0.7796434602831008  0.4917935447332735
  0.9738733275314498  0.9888788791949995  0.1278858798298000
  0.9752583775558353  0.1247906840622735  0.0071348073048632
  0.9951095789814981  0.1211004250721839  0.2330469075874733
  0.9962312714431563  0.0090178710263753  0.8699265540864962