H320 Pb64 C64 I16 Br176 N128            
   1.00000000000000     
    23.4676159759084335    0.0000000000000000    0.0000001549806228
     0.0000000000000000   24.1052251136166120    0.0000000000000000
    -0.0000030348130732    0.0000000000000000   24.3201836419938573
  H               Pb              C               Br              N             
   320    64    64   192   128
Direct
  0.1886513542430534  0.1321179991288191  0.1231186539867973
  0.1356889056176996  0.1354638855008873  0.0448881387534259
  0.0693113757853569  0.1373848048826035  0.0786978489600483
  0.0778563717244989  0.1344165369713563  0.1853394456248100
  0.1490459310649606  0.1321987691519241  0.2091468642693084
  0.1657586833957823  0.0879408145022687  0.3759722001174448
  0.1095808306826632  0.0590362274727381  0.3016268014322309
  0.0626437106114637  0.1149352422054600  0.3071974079901555
  0.0819051716907105  0.1819848008767720  0.3835134203107307
  0.1417442739108218  0.1677960173711067  0.4249490686510188
  0.1639878550871795  0.1402484530184609  0.6528912674353152
  0.1329515107834452  0.1755160037326278  0.5687441006536159
  0.0784343011891222  0.1263923099605179  0.5618654695140031
  0.0688361524284596  0.0575584135547183  0.6387678206959175
  0.1169198204443596  0.0643920029692333  0.6933734302121849
  0.1612562933025340  0.1601009840372300  0.8845392097658011
  0.1072042250754539  0.1757682596808994  0.8048733795916656
  0.0610028305357097  0.1205606686962197  0.8183949618108014
  0.0802306424388243  0.0652324011251659  0.9024843964367684
  0.1388230263177985  0.0873595928922681  0.9431136789439859
  0.1559594324889988  0.4046832562326758  0.1476542542602456
  0.1137776484189183  0.4331222281033221  0.0648974570937976
  0.0667889823067115  0.3769574002193741  0.0630460525617609
  0.0744327150181047  0.3086066439254643  0.1401538466022383
  0.1245342705756699  0.3234330108232826  0.1915492142068535
  0.1772118844393335  0.3755610307814946  0.3550447507882160
  0.1088142253584621  0.4162658073877736  0.2982161378735346
  0.0590952525753887  0.4225053505046122  0.3513041262617324
  0.0864217640544951  0.3816340742983809  0.4422508540919585
  0.1588318953039799  0.3631378912151063  0.4483796871971097
  0.1847802379363578  0.3688523798742785  0.6219140535962691
  0.1376005244541887  0.2867810676605186  0.6191205940347705
  0.0687307974751311  0.3159179937759691  0.6200298657125395
  0.0706968456828840  0.4258573812778632  0.6244810150356538
  0.1403401500963818  0.4526282679238650  0.6242578664791979
  0.1623262133234451  0.3359695783455145  0.8870914635303564
  0.1133831478551170  0.3147086341279240  0.8062546363667713
  0.0691494269038066  0.3726509152862006  0.8105504919202712
  0.0842651043234961  0.4349176806559021  0.8925843174872051
  0.1396930127142901  0.4140593476138021  0.9376080502092693
  0.1127201133856019  0.5523282343691215  0.1214123944232645
  0.0268001649989283  0.5959530141672310  0.1239366311046996
  0.0553139160329162  0.6635579233447987  0.1293695442268411
  0.1670678474483344  0.6649409434590862  0.1287202740298093
  0.1972409620540654  0.5981861672313551  0.1248791642381507
  0.1920729688830163  0.6253091175190573  0.3685499839238938
  0.1408187087733568  0.6242467722947428  0.2897514382073356
  0.0739560220199898  0.6164350883142488  0.3214274835234535
  0.0812317662043709  0.6134808105037465  0.4298023170147179
  0.1513153762860987  0.6178285131598465  0.4541635529471832
  0.1622149466423478  0.5994691376436668  0.6125814559988354
  0.1260669341193301  0.6809332173953760  0.5722168753802891
  0.0699500229484229  0.6859752776310588  0.6192590332365033
  0.0644214019475198  0.6131531728763595  0.6914165272057871
  0.1165446704480115  0.5612595840259648  0.6898819035839392
  0.1832193388414199  0.6305099441088294  0.8778834889726232
  0.1408792045485832  0.6302121728524011  0.7938606063489592
  0.0703545164423194  0.6312350082104460  0.8194473774844447
  0.0658430574157724  0.6317704939838822  0.9272873056723419
  0.1334975835625798  0.6319698647110119  0.9581934630979857
  0.1368579331116716  0.8119489164292235  0.1211969758748663
  0.1926183232390539  0.8858760330699554  0.0904221829673061
  0.1388034832553358  0.9344995790790210  0.1001530735075381
  0.0441412335293399  0.8975464996332978  0.1319685812478978
  0.0413462644989108  0.8249969815899638  0.1416001885969831
  0.1709265945759460  0.9041562266075793  0.3633910039485795
  0.1136388681544670  0.9052408015616469  0.2856693651968498
  0.0591653879023047  0.8663644204816248  0.3161400046347644
  0.0783704199214843  0.8343050247655608  0.4124198200384243
  0.1426573081194712  0.8583314290946215  0.4424253075521772
  0.1631900560115542  0.8566917883766232  0.6650403426480199
  0.1386818880913583  0.8126701558605181  0.5842911572715997
  0.0808928802395890  0.8575480348710628  0.5703328587408508
  0.0654887677239907  0.9337682008098476  0.6404229197237906
  0.1119890218751028  0.9333130971062044  0.6967366243345239
  0.1660450578326598  0.8895525437436406  0.8555009319315111
  0.1208315561293393  0.8154734364152088  0.8108169798989672
  0.0688886018745787  0.8084063195283874  0.8618731963691513
  0.0728085218808905  0.8764216415729695  0.9397961695673593
  0.1294167806807330  0.9232908914887695  0.9394494902028481
  0.3945850357116505  0.1830414294251265  0.1135721443176600
  0.3242416197050750  0.1517432624890732  0.0551295524570362
  0.3081175697110495  0.0928395084602935  0.0961099153258930
  0.3684858658179788  0.0812921044492361  0.1804641362881327
  0.4185305163345958  0.1333188419647613  0.1932230290290493
  0.4330086049785589  0.1268345092998164  0.3762906956961211
  0.3872906234764570  0.0437475932059934  0.3770507215100422
  0.3180372335663703  0.0723915519783339  0.3796028001539843
  0.3176095178286065  0.1805900554458805  0.3799611426165073
  0.3862062359845382  0.2099917169929677  0.3789610304731280
  0.3871240694080878  0.1753168492890334  0.6015590606821697
  0.3141419966444907  0.1312742414587384  0.5527971901070932
  0.3049043035278932  0.0796432249293041  0.6029890606756116
  0.3686247624541700  0.0851881330392405  0.6855547766686659
  0.4182745705112711  0.1389614824393272  0.6859896900079731
  0.4005223333763555  0.1534002385458104  0.9065058435234372
  0.3676469393926392  0.1891991566157233  0.8226018646903211
  0.3234153990077133  0.1322568974504540  0.8101435318078262
  0.3249706877647079  0.0560632453969643  0.8799252738639244
  0.3683521106502435  0.0659808227804553  0.9373948064673743
  0.4122611109735382  0.3546445203797886  0.1123454822742204
  0.3824384927075600  0.4373106662989880  0.0716975795480452
  0.3238264035028305  0.4449046793253120  0.1157047584903874
  0.3090723559661295  0.3685099347687964  0.1845090328989020
  0.3598372649758014  0.3152633372278023  0.1847420363253737
  0.4323746650071333  0.3864011912413662  0.3690780010106606
  0.3813568610167045  0.3840076830401847  0.2894621601450990
  0.3149722353251075  0.3741567161847928  0.3218004168813818
  0.3212125776727999  0.3716129769912003  0.4287605057546368
  0.3914576147909424  0.3776547537659310  0.4538613621522070
  0.3890454548899003  0.3541189555196994  0.5760721506978166
  0.3121614030271143  0.3056909452623391  0.6132176413671542
  0.3034627602125629  0.3525102435951387  0.6680920851439237
  0.3727927057334111  0.4314532065546843  0.6719911123495784
  0.4226938095497454  0.4354446688379461  0.6189511755492710
  0.4322345922580332  0.3772171876056616  0.8820750748197496
  0.3907443573614000  0.3718373657773948  0.7980415188745652
  0.3206320093356983  0.3658986837813868  0.8224825929290940
  0.3147432889938548  0.3698056753638673  0.9310313750147784
  0.3825902162577560  0.3748429884707494  0.9620652702708977
  0.4110400243222602  0.5924115677914930  0.1320123216216537
  0.3623515017065581  0.5858328193093955  0.0483998649443280
  0.3186474282795138  0.6428376157247387  0.0626673938986459
  0.3324606287066154  0.6881969059389647  0.1540931971337337
  0.3876384155552330  0.6597874310507122  0.1955216162426267
  0.4067613798328973  0.6506544138255708  0.4068414957172801
  0.3680865517702389  0.6906429544498898  0.3262382781306531
  0.3198847577641094  0.6365468541328273  0.3166340656128026
  0.3218101358683779  0.5595365354182564  0.3863629483827342
  0.3701531101874024  0.5670180079819233  0.4405560467830449
  0.4069564892891916  0.6409695495682874  0.6686096957094116
  0.3884050336108409  0.6926268268953666  0.5906681517673519
  0.3340816692074576  0.6476555773706185  0.5675374854482633
  0.3153369135922273  0.5644296281196804  0.6270792814335495
  0.3570835526913717  0.5586748736114261  0.6862792385543472
  0.4357661270496116  0.6312506633835190  0.8730250592050957
  0.3904236695566087  0.5480999159237506  0.8729334967051383
  0.3210066951847196  0.5757754596975688  0.8712988042563319
  0.3204364773619306  0.6859937197616366  0.8700157441079338
  0.3898059741022403  0.7139636813755411  0.8707012110335172
  0.3790896799334755  0.9223126371483039  0.1601836437872510
  0.4425958268620546  0.8979921720769268  0.0914774538794960
  0.4003512769236250  0.8408798886037121  0.0692403699191281
  0.3113787255030998  0.8234448980530793  0.1224587006070363
  0.2970486053317078  0.8698691380599342  0.1761214360599140
  0.4114700409776123  0.8560923601841590  0.3447452160887476
  0.3670523129128269  0.9344006120914989  0.3068328198869220
  0.3156941123066569  0.9378627416270795  0.3589378205608367
  0.3211301328363200  0.8658396227980344  0.4318497279992088
  0.3748485702593258  0.8158135090694354  0.4253046733944067
  0.4120523376211193  0.8454611880020884  0.6348379516502726
  0.3605277266871640  0.8152253176391645  0.5586493421244785
  0.3134219930600593  0.8713563935888099  0.5603901399773932
  0.3303286817944434  0.9418078856791227  0.6353513320503152
  0.3885737015135476  0.9276711935835797  0.6789343213176361
  0.4352153109881570  0.8796757894523922  0.8638307975111335
  0.3785937979586097  0.8702073101270295  0.7880966642006532
  0.3140815967826378  0.8716154625618915  0.8243881012273543
  0.3279070877152425  0.8814243586206771  0.9313422143472000
  0.4001725238360557  0.8845260195140154  0.9507754551034316
  0.6629473289689022  0.1167118469621791  0.1597997476463122
  0.6485153032538000  0.0750592062972503  0.0755913439017769
  0.5886580093796406  0.1165164448026944  0.0590857048826790
  0.5623651487252220  0.1884871153083599  0.1309497065946368
  0.6045504003528926  0.1884835874422180  0.1902576611300510
  0.6630514646488739  0.1406314653531299  0.3508512807914875
  0.6211919412487271  0.0590735781450365  0.3182877694598993
  0.5690114637581800  0.0579812655209319  0.3696510247856211
  0.5727703499237864  0.1368914301854429  0.4386613822237563
  0.6278311856367969  0.1853041195311340  0.4278309189146335
  0.6659547481386281  0.1419447465756150  0.5950726247002168
  0.6172728394271960  0.0636559795967718  0.5639045675593773
  0.5674680011875881  0.0650222108072618  0.6171692011032636
  0.5796650415188663  0.1438391806120337  0.6865838997861169
  0.6374645002999362  0.1885115631045703  0.6731074836675955
  0.6216363462160132  0.1622792292570465  0.8243311994820501
  0.5430403347533754  0.1819638109872345  0.8798746548838469
  0.5571468951374386  0.1279266008509741  0.9257261300073230
  0.6420084717686958  0.0674338554121738  0.9020367718514080
  0.6817083356186832  0.0888286122975716  0.8440140959806990
  0.6550788000583926  0.3478153907968444  0.1051279911630838
  0.6176746086595027  0.4274930336941475  0.0633695608553483
  0.5709462727263969  0.4413153057639373  0.1176894376398244
  0.5711226357273405  0.3723989929185858  0.1952621870031148
  0.6206749698077216  0.3183485718422542  0.1907668368288106
  0.6565202734556633  0.3474151213725297  0.3590571715817177
  0.6152815584721029  0.4247621559751653  0.3155453747557094
  0.5663360192544346  0.4359658712543971  0.3683957793942498
  0.5713626704216096  0.3702133042986556  0.4485205566131369
  0.6224247883529467  0.3175011384162411  0.4445877428681634
  0.6121030071638477  0.3034240819734220  0.6351011429035959
  0.5282651879527409  0.3493878690700303  0.6274526076568067
  0.5585162219051265  0.4164871970333065  0.6250373355975518
  0.6708629872239217  0.4138095648438965  0.6263831613372526
  0.6981387627014012  0.3460938374922807  0.6343021021889027
  0.6611187754999005  0.3818690939405285  0.9185730778435347
  0.6442895970193370  0.4350450918434532  0.8404343987896030
  0.5853744028103838  0.3949517988846148  0.8197580694449570
  0.5599591810180268  0.3148051191994766  0.8824324260790231
  0.6040459462861070  0.3063829596453294  0.9401098962642691
  0.6774364555242921  0.6156865914995920  0.1263742958293006
  0.6389773229611300  0.6190694740845267  0.0398017643415216
  0.5680230569521131  0.6248627319984555  0.0623752140255596
  0.5581594582274527  0.6281610957580850  0.1694249870707676
  0.6238052144424044  0.6221489641754994  0.2037730053124823
  0.6412196915131906  0.6429081035831632  0.3272738714156985
  0.5612847213235505  0.6896355216719887  0.3613933398011648
  0.5474652328590637  0.6392110239554263  0.4116564366993885
  0.6151269540171973  0.5576074870497265  0.4141722020713577
  0.6700168532651558  0.5583221322518179  0.3658698775713957
  0.6180110130264916  0.5759037488560358  0.6620527202368272
  0.6790369306487131  0.5819258301467405  0.5874608155513694
  0.6455077972970990  0.6423933297561213  0.5613120155983067
  0.5645508540862423  0.6792932549048821  0.6163079733361151
  0.5462614929535977  0.6414310073612614  0.6754104503372295
  0.6593111155831231  0.6136373938873951  0.8981721759222907
  0.6312617512739114  0.5708457581009809  0.8168136638740257
  0.5779311285221247  0.6201803557648564  0.8029754141194108
  0.5691586163271503  0.6980418335822597  0.8710570444359390
  0.6145225471328639  0.6952466691568362  0.9280128618244897
  0.6641780800904301  0.8336526707353378  0.1157365456330226
  0.6487128897622703  0.9108533235198987  0.0615695240307472
  0.5899024681920580  0.9342889089985182  0.1015875568149035
  0.5659914843665428  0.8753972168635819  0.1837029645439400
  0.6079249524193633  0.8159817533391712  0.1923164779250321
  0.6445328548994144  0.9274409795160594  0.3849091942325666
  0.6717595787071127  0.8733490312381673  0.3088896887294011
  0.6162149668274723  0.8261498415378196  0.3180247053957019
  0.5470706044141502  0.8468228473981160  0.3933827974243956
  0.5635393619822121  0.9041445560289261  0.4354752410256336
  0.6848913971456798  0.8661446913092153  0.6284329862090542
  0.6462048657600487  0.8747779771474354  0.5423197051977767
  0.5751847022694150  0.8808789954087558  0.5658300986021142
  0.5662996735278645  0.8788667969685380  0.6729316373545664
  0.6316863901283758  0.8685754849648802  0.7064919134895593
  0.6668790604111554  0.8706112684902073  0.8375039914305783
  0.6097771671794919  0.9469455166390163  0.8158373886269048
  0.5638192443666388  0.9369470122650166  0.8714585935987516
  0.5874025921394009  0.8547483273435499  0.9329098464657599
  0.6486620406558048  0.8165617553800537  0.9128650108486474
  0.9132910346293108  0.1638710936136849  0.1224946697366822
  0.8903978012161431  0.0949368854350071  0.0606064371991293
  0.8282522011742730  0.0743556257650976  0.0968412342382644
  0.8088142524905952  0.1268826085248358  0.1841748981482373
  0.8568405279834377  0.1799796778230907  0.2002483590922870
  0.8726934711654231  0.1678223303007162  0.4048006858822230
  0.9288446776697337  0.1400579939717002  0.3320582665603480
  0.8827677629811410  0.0855255283920633  0.3123184756097007
  0.7951298273186482  0.0736648901104185  0.3725803935335463
  0.7887915034260883  0.1212930776069933  0.4267490043521158
  0.9334000338825994  0.1198384987457289  0.6312103744536899
  0.8981901490509870  0.1188745767313164  0.5439188159179784
  0.8256009343571207  0.1194455591644024  0.5639404477343636
  0.8124839222727994  0.1234125020437846  0.6710917009252991
  0.8769641615102441  0.1217937100490256  0.7072064905352019
  0.9164078452626571  0.1301539269844388  0.8367227785950997
  0.8560705141020989  0.2056448087028266  0.8287165248671431
  0.8126351445253471  0.1856234310901704  0.8841416142431366
  0.8417629395980775  0.0976298197558579  0.9314320049130106
  0.9028635754143460  0.0637331711933201  0.9042605713557857
  0.9131886046677097  0.4061819329420381  0.1415578861271064
  0.8682580651221146  0.4322168343185148  0.0593731460467721
  0.8140627495392297  0.3830726876847733  0.0663068993522355
  0.8192310883476112  0.3217614861588948  0.1505116873919082
  0.8761536254988733  0.3356912075586223  0.1955294777170896
  0.9004417992192414  0.3642594201872865  0.4203650239438389
  0.9172373133628807  0.4453234110416476  0.3706843992272195
  0.8551605543257579  0.4384424845087260  0.3312920689817936
  0.7959900052954858  0.3533402791746431  0.3495691934332689
  0.8214239932608473  0.3093801627886267  0.4024365295922109
  0.9092196634656995  0.3606292338042286  0.6610337285294057
  0.9022800001535763  0.3027375625320199  0.5862537730783481
  0.8462954669133234  0.3421221723910990  0.5553199859459224
  0.8154959803742130  0.4258473032155329  0.6073390019724941
  0.8512651946147523  0.4381093458058570  0.6698226184429960
  0.9317308740104406  0.3723872541814496  0.8950339466496587
  0.9081376505008830  0.3842288469457980  0.8030304534341984
  0.8354557054488425  0.3694708916923087  0.8129718435104739
  0.8110042455800355  0.3339010327360256  0.9081420558209584
  0.8653566681062645  0.3374722969601970  0.9570392209997401
  0.9063032036862574  0.6671901244638957  0.1121827882547966
  0.8850668517373292  0.6030700414047793  0.0436251861885520
  0.8308866062203994  0.5709027284384299  0.0831400234735963
  0.8161032569955194  0.6084597112088996  0.1773462591289829
  0.8591325329056783  0.6647321243125881  0.1964493442057347
  0.9000804986504258  0.5731637947216817  0.3571001933820624
  0.8153355020638710  0.5904825664397663  0.3116771917923218
  0.7972353069075311  0.6474746808007048  0.3540794211100406
  0.8676821039816515  0.6701939419424862  0.4280543365413336
  0.9274690413920765  0.6270317705218045  0.4328257392758237
  0.9093262795959354  0.6367018836659107  0.6611964459403207
  0.8886325358827911  0.6956466583201695  0.5893485234174559
  0.8365848750372404  0.6506683345065624  0.5605788113629415
  0.8217197283748851  0.5615901385874085  0.6105171696377423
  0.8625108526119853  0.5517271404509739  0.6701738654197537
  0.9088129072266333  0.6572454131650183  0.8557320206968456
  0.8731929028449986  0.5797814448189041  0.8090404604678475
  0.8164950410237020  0.5705985060265633  0.8547680591197180
  0.8097316244489382  0.6386320100865744  0.9319486600596760
  0.8627990739296840  0.6894353773808112  0.9355831662220830
  0.9120459248181857  0.8813479919882753  0.1586540176867565
  0.8765294158472734  0.9362839875027609  0.0881546287312066
  0.8189518746253408  0.8916315255517541  0.0741947439627037
  0.8143996113873764  0.8046148725113296  0.1327692610673522
  0.8672461769355477  0.7986539808256612  0.1829750055720031
  0.8888881368564095  0.8241161298696383  0.3412438714147086
  0.8057173283395999  0.8682714148925520  0.3103364751382736
  0.8068112166417378  0.9177978986168192  0.3625285554751543
  0.8880749542508077  0.9107138142346498  0.4301312204711352
  0.9372785836983799  0.8566962351487984  0.4173168057885254
  0.9129821140497558  0.9106385004361883  0.6073770851723329
  0.8799038245482336  0.8357204383159118  0.5555750290446083
  0.8240867607594745  0.8207296402411748  0.6015188881283503
  0.8149427889928298  0.8841533887897527  0.6826710539515164
  0.8658436448243054  0.9368187443675042  0.6882287327342164
  0.9284197315026341  0.8740784054343711  0.8756566469724395
  0.8836181193061553  0.8681054146594247  0.7927406332529251
  0.8145952020087101  0.8602880410262803  0.8209994008819193
  0.8133330718608971  0.8571858408774310  0.9262069037501516
  0.8806186272235121  0.8664201953594337  0.9573626192019199
  0.2457109615133339  0.0021018867276187  0.9989399901566112
  0.2369922306733652  0.0021438433248005  0.2425563510846470
  0.2338887091563685  0.0005677097039329  0.4982638131369337
  0.2395901843200396  0.9968610496942845  0.7532098447463621
  0.2321301867052881  0.2540378009215462  0.0042138528831371
  0.2371683163649048  0.2481837800929884  0.2505265173761396
  0.2414418001606051  0.2486096076277944  0.4942041948253957
  0.2395071768365720  0.2460526606014594  0.7515315666205071
  0.2387799042295765  0.5036866829015348  0.9968437054730043
  0.2374972886243901  0.5023797000526158  0.2499886306763363
  0.2392133181538098  0.4973098047404815  0.5012156323507371
  0.2380657669051340  0.4985993905357158  0.7542291637509154
  0.2382273443084352  0.7530893502769255  0.9919774452468794
  0.2333318520111081  0.7534738350127611  0.2522391413783583
  0.2402203868867340  0.7468924618461270  0.4938245990461160
  0.2384930166177608  0.7475471571694740  0.7394123432497027
  0.4935811473497793  0.0023896721727374  0.0004157922539819
  0.4918036154607352  0.0036200774507123  0.2491782534037827
  0.4807244232997305  0.0019255623062603  0.5051517312929950
  0.4902562043961782  0.0085362677047132  0.7530207264394513
  0.4823341686246736  0.2539686809986572  0.0102552540546266
  0.4855363657931733  0.2531179043180835  0.2615870241898631
  0.4872464077500587  0.2492472675200214  0.5057725625291331
  0.4884117968413965  0.2564989406020818  0.7526561139483466
  0.4915372699258905  0.5036262934021435  0.9990861291909580
  0.4833463154570237  0.5049718380752383  0.2504035673389133
  0.4908220796677928  0.5041230802797773  0.5011396029087144
  0.4902771156540822  0.5026992066402345  0.7536473374654898
  0.4878372177743859  0.7496223816866875  0.0034792299892527
  0.4833209829865647  0.7559906445604611  0.2439647041380622
  0.4951528205680845  0.7522404108699168  0.4994801772136753
  0.4872483340864922  0.7577408111904209  0.7490471029365185
  0.7442786176602050  0.0016699982662276  0.9889923021835622
  0.7393116120423472  0.9966415377664116  0.2389232823156500
  0.7379848968450831  0.9913383854544695  0.5010304182016506
  0.7392451254135731  0.0019983160324770  0.7467677592742052
  0.7377184600077074  0.2449907747141615  0.0101143981385046
  0.7382086542720557  0.2462158250108984  0.2599310799615978
  0.7395085510799985  0.2482869994945031  0.5099286315939530
  0.7375594219079524  0.2538945193946249  0.7599632139205788
  0.7375960784836271  0.4972646965682755  0.9951414962666255
  0.7349433020951668  0.4897537247202051  0.2408592568600133
  0.7443851544755976  0.4937598128636819  0.4886243445226408
  0.7373452050007704  0.5006001120801024  0.7442795038205916
  0.7400103465914053  0.7509291127330822  0.0006860686183297
  0.7368004747790129  0.7418014178936183  0.2490039448953456
  0.7382735743888077  0.7441628387112799  0.4932325664963542
  0.7369245201224166  0.7432880530366672  0.7408065279540261
  0.9930245428960405  0.9987081933538190  0.0039699525945530
  0.9850783007452987  0.9923790493302453  0.2480518557079422
  0.9915694381645697  0.9969767052185414  0.4911978393025818
  0.9865220677406208  0.9973272023483104  0.7549742178201841
  0.9862992547434974  0.2480440297308044  0.9989903598360551
  0.9914067957222262  0.2508394679624611  0.2490974899762881
  0.9901365062415869  0.2472934943443697  0.4928920019331358
  0.9854896574988777  0.2476879852081818  0.7507070819581684
  0.9867038119667084  0.4982650829735771  0.9926138000761331
  0.9861215667901708  0.4980494067115360  0.2415662083392403
  0.9915977357627163  0.4964036246422545  0.5009903377624704
  0.9929590119803595  0.4965836534086613  0.7475085877108307
  0.9913835330516777  0.7483378788601344  0.9995521678755626
  0.9932567888573270  0.7426176543578867  0.2553265770003114
  0.9910365815305141  0.7472999485347148  0.4992787982743739
  0.9841160469875248  0.7508200037143812  0.7476496631320040
  0.1421224110387918  0.1337465416867994  0.1268972079484598
  0.1283130220619568  0.1124698561262466  0.3638360167292377
  0.1278138825289497  0.1206266260375269  0.6317799617709421
  0.1249369817853502  0.1329021345539756  0.8749612617949466
  0.1218546153618541  0.3796281768718064  0.1292430462243351
  0.1350172869838440  0.3857345594518775  0.3717398807560964
  0.1380209116081123  0.3696688051725658  0.6222600279669753
  0.1278704794666357  0.3634610780393941  0.8730344237832480
  0.1120246991817653  0.5977301877848901  0.1242650398393139
  0.1456950804715146  0.6208048344026338  0.3717335093620466
  0.1241749293180651  0.6196911148683418  0.6296926149875887
  0.1364968735308162  0.6309410061902379  0.8759500893714091
  0.1188669565234831  0.8539737844252053  0.1200042008064171
  0.1298629350664031  0.8822315952915114  0.3640444911609050
  0.1270065329974730  0.8723775934304950  0.6409259380522381
  0.1278809067652253  0.8706856720738304  0.8738397407861437
  0.3719030434418554  0.1443602293808084  0.1233477543251215
  0.3862798361899422  0.1267373739151430  0.3777315443841467
  0.3670022193689038  0.1379321229458519  0.6186272337678335
  0.3702154719512782  0.1293561039450444  0.8817193809012595
  0.3737149230558307  0.3755044187117251  0.1275398436228840
  0.3860648640960422  0.3807635305071127  0.3716576020552470
  0.3684807660749218  0.3693885327799641  0.6137249553670993
  0.3857246464654584  0.3730287173192839  0.8800400997953098
  0.3765827392450427  0.6219055188526647  0.1227021835439957
  0.3725046875847492  0.6295875589080355  0.3842325534970906
  0.3738394259228712  0.6269196212683679  0.6398556125144603
  0.3890059706361013  0.6310886455642711  0.8719153360401617
  0.3699279086958564  0.8862259142997604  0.1339657241421883
  0.3742847540307107  0.8745064993281291  0.3652406832551111
  0.3756848047712280  0.8700679446302788  0.6201905250038353
  0.3888592793089184  0.8785108769326245  0.8695013164893630
  0.6278044914722355  0.1311235788193098  0.1334835118826902
  0.6260555070057271  0.1230969793304635  0.3723773408490426
  0.6286524580745709  0.1269339313838735  0.6179561101375564
  0.6128925966513449  0.1360069693759829  0.8603301083234197
  0.6213318620636763  0.3715228830044061  0.1258289729239972
  0.6213528028550983  0.3698397735735128  0.3789486519629518
  0.6131550004549171  0.3488146846649040  0.6316283286857668
  0.6255030475158606  0.3713408922686620  0.8911929819459853
  0.6311128936714357  0.6201856423234965  0.1219414356079348
  0.6168392509604310  0.6250471878905124  0.3615176511274304
  0.6129939424137618  0.6100635038651943  0.6324933625695842
  0.6248081425186923  0.6318743624137629  0.8734921933668336
  0.6296389831284501  0.8626066147890585  0.1263072653104708
  0.6192430878019245  0.8908323766967413  0.3734253169389095
  0.6386908229008077  0.8719590942705909  0.6245077156381990
  0.6299344016786724  0.8806338664978565  0.8634890958120706
  0.8751188623506275  0.1383913963630182  0.1296448499148659
  0.8591907171326564  0.1322377737624529  0.3796200549211659
  0.8870274125463915  0.1205361108529598  0.6254139526395750
  0.8806191954543475  0.1344922298930871  0.8656160958091487
  0.8743005324371622  0.3846809998280176  0.1281784539969706
  0.8700647635627267  0.3767833963116123  0.3882263011687455
  0.8774923982904040  0.3697187633998955  0.6290030252979529
  0.8878620351462907  0.3647808852162423  0.8812895076030545
  0.8729499609572462  0.6358747092414667  0.1190753804101228
  0.8728220415395982  0.6076065386354640  0.3706599103807608
  0.8772201280047985  0.6243789212240997  0.6306549187607181
  0.8703640291795641  0.6361994041460221  0.8708285946303429
  0.8737809236202297  0.8679592940494424  0.1361813415428603
  0.8722878580500780  0.8603225117380106  0.3634534305757906
  0.8755291978227043  0.8871026994960554  0.6212354097120539
  0.8820318922324429  0.8683062844111729  0.8749220832556773
  0.1092420231248833  0.2530834242567504  0.9859272563915651
  0.1137152317327158  0.2426059075335445  0.7380591925863897
  0.2458138640323344  0.7414512091062433  0.1246623132390922
  0.4967477942444118  0.1271406641926093  0.0101538821454302
  0.3582656599319125  0.9842102551749575  0.4936407696900558
  0.4943759508140519  0.5115386450954508  0.1218355980480086
  0.4877076573210500  0.6282513221432837  0.4892535122037520
  0.4888436074317194  0.8776560663826526  0.5140946053774738
  0.3621024279855279  0.7546557544735635  0.7351421507615945
  0.4761658891561565  0.8827007850404235  0.7385462076506487
  0.7279259512692272  0.1176748821805879  0.2524354716501255
  0.6147265309388270  0.0054672451619753  0.7395904219926055
  0.6113248460041470  0.7544257057401897  0.7612992657577475
  0.9908204061675369  0.1248483301280155  0.2357737224147260
  0.9857804472481503  0.9981580834502652  0.6319427557445264
  0.9963607075018616  0.5018268504345281  0.3747707059231084
  0.2457120856826463  0.0149922799012214  0.1210255452556195
  0.1204433150870749  0.9963493242465833  0.0122680247635703
  0.2244662912352798  0.1282762890065830  0.9924524163797691
  0.2350924370772549  0.9989188296584305  0.3700336406011724
  0.1130076668469274  0.9904539676323778  0.2287460193385781
  0.2374550424825333  0.1257626874635793  0.2584503816629884
  0.2485421333558793  0.9997072292627144  0.6223013411624229
  0.1113535132278755  0.9959331814444901  0.5211941662070365
  0.2413316659867371  0.1259508710538277  0.4736670226765127
  0.2486473294936348  0.9861133215802069  0.8739460987391238
  0.1153447230495156  0.0008338460014256  0.7707456335948174
  0.2384939922964295  0.1204397223834434  0.7512398663230957
  0.2324726493457140  0.2507486332152170  0.1236770472859545
  0.2295854347845566  0.3804207453766575  0.9891081762745841
  0.2506932774792257  0.2684236930185488  0.3717513227076001
  0.1143628552640201  0.2544957532211472  0.2704853048302664
  0.2300262702202811  0.3770159421577642  0.2481696101853185
  0.2268743476734032  0.2370863249842929  0.6169858155148336
  0.1158922222253337  0.2486986813544525  0.4950915889788824
  0.2440620103881151  0.3737739388143753  0.5030641417507499
  0.2349043311367034  0.2523684998001819  0.8693170348684494