H320 Pb64 C64 I144 Br48 N128            
   1.00000000000000     
    24.6155400121022900    0.0000000000000000    0.0000000366352518
     0.0000000000000000   25.1175354531041144    0.0000000000000000
    -0.0000033138529675    0.0000000000000000   25.3186630718515069
  H               Pb              C               I               Br              N             
   320    64    64   144    48   128
Direct
  0.1535837301983968  0.0804822658183531  0.1038271277780322
  0.1343984780875423  0.1574067870121444  0.0570942715777830
  0.0821232675174419  0.1775096462732618  0.1005938238618160
  0.0636680537083640  0.1153460450231055  0.1767007239588651
  0.1051708739981382  0.0590817624792266  0.1805391400836108
  0.1551083112320572  0.1484025750303532  0.3636708146504042
  0.1433355375873116  0.0674278571283194  0.3218502448890427
  0.0816042310050481  0.0535748264942288  0.3539488817820907
  0.0501689002142110  0.1234200989709607  0.4191247303532922
  0.0922818939194568  0.1792494900862752  0.4256510824419431
  0.1556971317217175  0.1391017266337824  0.5875914288143481
  0.1085760722378952  0.0629065954298754  0.5609518083294018
  0.0636482546016820  0.0649880706516333  0.6143167180790237
  0.0765895165460063  0.1425211712978353  0.6777846143588024
  0.1309280017951040  0.1856858812111546  0.6618785286890942
  0.1587974906878794  0.1540857741376999  0.8493883032582237
  0.1316376304263706  0.0807150213699687  0.8006212691425880
  0.0769035126317219  0.0657084558240239  0.8427479895656244
  0.0639324184896676  0.1283348130967269  0.9198993097405054
  0.1109215135993978  0.1801352549632678  0.9253356373571169
  0.1694877121544255  0.3704113240655578  0.1299441791819841
  0.1368200338205882  0.3756352844404804  0.0456319343786222
  0.0678452299372625  0.3775841080839374  0.0643591129650242
  0.0534132633666317  0.3743581687036677  0.1662494850100154
  0.1144909251227453  0.3704403558213299  0.2022425649353110
  0.1481544938790866  0.4069721557667554  0.3599104909291239
  0.1264997041074613  0.3288048640762566  0.3161281679079251
  0.0703525263202904  0.3145782025259176  0.3570573960121791
  0.0524493087496812  0.3811537317372495  0.4291290582536443
  0.0964639109373012  0.4358575051414081  0.4322997117633240
  0.1757361496086280  0.3717125855626781  0.6229881432551427
  0.1349174033236525  0.3768205504722261  0.5421525321211418
  0.0680764737925767  0.3794293617991639  0.5673604462961336
  0.0638515994172109  0.3752656017265205  0.6707280946366589
  0.1281866083855430  0.3705177075801397  0.7002253352433693
  0.1256579456409087  0.4232191543887906  0.8591852821446261
  0.0452658845531141  0.3889114358423730  0.8242370681526858
  0.0456933722918287  0.3329164838079258  0.8653502795604540
  0.1260073339732477  0.3242545442774983  0.9267243088144643
  0.1729913919608478  0.3763058586139724  0.9245890948577583
  0.1560487715057751  0.6380090569260942  0.1547309626970664
  0.1377126491959295  0.6801116388546787  0.0761418102599541
  0.0812764018906000  0.6391094093884118  0.0607668046809275
  0.0611763145865358  0.5668763537148100  0.1291341033405964
  0.1035678455656903  0.5666933729535646  0.1842125291337200
  0.1650920972656370  0.6262042236317364  0.3626703077441756
  0.1083285449406021  0.6423339666024135  0.2924184924593120
  0.0490565380065523  0.6425872024994015  0.3306700650426567
  0.0645505336346937  0.6270096086852521  0.4305736043228520
  0.1335504539334970  0.6189987193578723  0.4473791394972877
  0.1478577540116378  0.6625771502374718  0.6251817243551360
  0.0832651865309454  0.6615158285986172  0.5581824497672001
  0.0524851191106091  0.6025586490384607  0.5819322756231976
  0.0925380210689438  0.5629078882189810  0.6619375432908922
  0.1491819938473025  0.5969291756557386  0.6894755912910635
  0.1029168485891230  0.6858124974670172  0.8608884531613599
  0.0261454299159973  0.6350306134461899  0.8634864907582187
  0.0615687011991332  0.5738936950144292  0.8685788351062784
  0.1658975681152732  0.5837324909465871  0.8698564145724325
  0.1880618965085807  0.6506886090442257  0.8653565790238064
  0.1589012837594338  0.8516787646291933  0.0970794157321451
  0.0892758093566975  0.8086583878374966  0.0520897039904033
  0.0425975449598982  0.8165635483288985  0.1037023552677803
  0.0760891121464751  0.8661242767854973  0.1829925938580032
  0.1458071677540319  0.8823969956834953  0.1830504998627843
  0.1369959617240871  0.9122396651689898  0.3527519376359666
  0.0639119931627871  0.8816946805926861  0.3012022485321021
  0.0502667085477739  0.8281086455675817  0.3439704557806507
  0.1084415508439401  0.8209584071254795  0.4241659805267982
  0.1613093054560416  0.8671145844539325  0.4302146651611550
  0.1492136301547338  0.8616657021570244  0.6556034378640949
  0.1648231252512375  0.9330181809769453  0.5983779419321438
  0.1061950794099918  0.9206356849035116  0.5611721204902378
  0.0486364317090609  0.8445823610760020  0.5907749326432018
  0.0731717523905695  0.8079386831001421  0.6456420516897005
  0.1770756153249920  0.8773758128569310  0.8602630950984197
  0.1272070873924910  0.8716165099943145  0.7849725339326267
  0.0635907696734913  0.8745316414473768  0.8166804191245308
  0.0710198459364105  0.8825582467648817  0.9191977220091575
  0.1381963164405218  0.8842090466339804  0.9425706560060604
  0.3929342904944816  0.1717812884367138  0.1120017417858593
  0.4028144880229663  0.1098911970066938  0.0435801599281527
  0.3498778856804521  0.0693558661407799  0.0675161266019028
  0.3033684945894757  0.0998293250417762  0.1486836745216877
  0.3279497585155864  0.1598818028667949  0.1770875058546528
  0.4302963575633432  0.1233884276262726  0.3765805792378945
  0.3853394650837487  0.1225964028809240  0.2968744339751511
  0.3205198928614859  0.1305533062373075  0.3248727845667411
  0.3205746075497728  0.1367221191849667  0.4270625101393647
  0.3859259089014331  0.1324620807226774  0.4553077397713281
  0.4120536496570731  0.1522332658036694  0.6151378477598659
  0.3897713188716256  0.0808493556791987  0.5618612806804557
  0.3308091287242299  0.0643409593438118  0.5981001669871803
  0.3115647211306858  0.1241693384538582  0.6767622773686460
  0.3585407950944570  0.1749682446019244  0.6879939453886631
  0.4049834663580154  0.1488683983974381  0.8574526335009778
  0.3760999939711789  0.0765502376509371  0.8078047985066348
  0.3209687714871680  0.0626412000865662  0.8497736065903675
  0.3090302057134111  0.1241638097251083  0.9268385432536834
  0.3567221426481022  0.1750323569727373  0.9338896490289491
  0.4024039839476146  0.3661862912836043  0.1611919736109324
  0.4107749288258490  0.4386992865781321  0.1040953514579798
  0.3500441867011914  0.4239093002130389  0.0705685622384755
  0.2988762360450909  0.3435455953815110  0.1028951882779459
  0.3292340819923231  0.3084442626113293  0.1556997700830757
  0.3941413414945730  0.4120610946353571  0.3713959133745913
  0.3274282594386180  0.3992809922130731  0.3075731773446675
  0.3010460783827453  0.3420415111415562  0.3396059674172547
  0.3473257933238902  0.3136614256148815  0.4209432301718574
  0.4018338186921437  0.3533040528724825  0.4427511720925495
  0.4073175431999903  0.3442454079966731  0.6039300878787996
  0.3754593472103033  0.4168452782125821  0.5556556767046920
  0.3223054174807294  0.4302633685155479  0.5997731777936434
  0.3145545895872554  0.3682525823911725  0.6775521394272447
  0.3632307723827286  0.3179648575566342  0.6820529889669980
  0.4063634138185305  0.4153002175615548  0.8768688941782150
  0.3464802512499944  0.4114672825724650  0.8053794349866761
  0.3118303184522795  0.3556871440955378  0.8310967153086074
  0.3449113699676796  0.3197501212014470  0.9162362742790275
  0.4004537144878695  0.3536066820029116  0.9451408012315479
  0.3980736766440934  0.6527516234165065  0.1361903447549264
  0.3525760833436454  0.6811804108519158  0.0597434564443996
  0.3050110757493652  0.6297932886017553  0.0623183957561150
  0.3139806288891998  0.5659747036903070  0.1394898231327558
  0.3688593659430424  0.5795555178274983  0.1824922093025456
  0.4038046686376255  0.6238640983003486  0.3319769215025828
  0.3495239447784423  0.5492997217124216  0.3199364443758941
  0.3017110599843537  0.5683390590690026  0.3670680502627200
  0.3220869436530077  0.6553297605149507  0.4141982845032580
  0.3821628277192554  0.6883972750299419  0.3936102183827370
  0.4211262121888017  0.6254659952824695  0.5999036023119616
  0.3583926090930486  0.5833716349258109  0.5447186795064665
  0.3099993386350349  0.5763304591643024  0.5946242932286587
  0.3341148692653923  0.6162462323894630  0.6827843167673429
  0.4013268601627056  0.6389150617721804  0.6889188316867760
  0.4091063049006779  0.6575651995665693  0.8588204956421394
  0.3894018497572400  0.5827716519454362  0.8098930260659597
  0.3354210623674835  0.5622636516373963  0.8514411618546411
  0.3185809309872373  0.6223154096713717  0.9305609992155175
  0.3606933225050308  0.6782052432610739  0.9352075102438976
  0.4297939034659015  0.8732033701039438  0.1225477213271896
  0.3889604684515935  0.8796764960758920  0.0420389858972926
  0.3223014583408140  0.8804818127131098  0.0672407962133075
  0.3179281613147542  0.8740766734098186  0.1705106533272979
  0.3823402611997549  0.8701157909836753  0.2000812543305981
  0.3773980941107787  0.9130359131962741  0.3514049445902824
  0.2998069341609547  0.8809864049396688  0.3106969380229699
  0.2920901907180557  0.8273692225697374  0.3544313109890266
  0.3636402775013494  0.8205382708899915  0.4262888265052054
  0.4140478309490737  0.8693696587260608  0.4256356519192845
  0.4008593866057357  0.9093022039423579  0.6237128212506001
  0.3438630166638262  0.9097638912426109  0.5501206545315087
  0.3067526949593667  0.8541029672091323  0.5719149638674550
  0.3358542844194396  0.8141505559459058  0.6572189854496697
  0.3914549845302572  0.8455422076215238  0.6891942046710002
  0.4087747950296662  0.8605894160679568  0.8289900142772507
  0.3547037312700125  0.9333959548392097  0.8057461039733480
  0.3120428768414639  0.9266039088736758  0.8604803689926499
  0.3338413492097821  0.8500803274890776  0.9220880898494196
  0.3906828273988254  0.8111804325091611  0.9039630388563312
  0.6481521403721948  0.1506466336763284  0.0943989961403174
  0.6152998308035907  0.0743292258662502  0.0520179514873768
  0.5656870824006834  0.0626668161655680  0.1002388127230052
  0.5611308781909077  0.1272121346286016  0.1744574377184976
  0.6079759194170791  0.1792442298534722  0.1747555397310986
  0.6493266594792930  0.1663595946773476  0.3650574838172037
  0.5877614770245311  0.1575121619615354  0.2966746287168960
  0.5593786851548730  0.0980857790937841  0.3225604447950756
  0.6000324547956754  0.0657291374279520  0.4068024710215177
  0.6537555879263259  0.1046011590850105  0.4329397448327441
  0.6084802204682144  0.1953562577261424  0.6236388079396964
  0.6120239897876512  0.1539909962659256  0.5436266446349212
  0.6164382575596277  0.0889940870400771  0.5696242026379906
  0.6166874918151258  0.0866726592362738  0.6726078923565538
  0.6125363376407228  0.1504333646735966  0.7018756069751124
  0.6600906169064307  0.0895795713390648  0.8862510877931042
  0.6070639566010531  0.0623088376516977  0.8145730598515618
  0.5617503079601319  0.1153426015154516  0.8201821528928960
  0.5833513470303925  0.1827258928099725  0.8922413594907346
  0.6391962223878662  0.1660036960742612  0.9327023186228952
  0.6556284727267545  0.3951948764226235  0.1537296217912562
  0.6274189614266250  0.4341609089276259  0.0759185057887208
  0.5740846763007240  0.3887397090631284  0.0654881684645631
  0.5642630422278754  0.3173843584357323  0.1363676194667909
  0.6115006424396396  0.3205537825016435  0.1878286019284851
  0.6522892529526804  0.3976228675336351  0.3896021163833522
  0.5997268182732890  0.4311591521023358  0.3193941717467566
  0.5519720197669045  0.3802432251690682  0.3234810226849312
  0.5693032721740606  0.3098306705588714  0.3929274418945490
  0.6273686574010092  0.3194874042871582  0.4320045907936554
  0.6775506382206034  0.3750149750872484  0.6238909988896615
  0.6315862054922829  0.3799544038501479  0.5455506625011934
  0.5667249550228260  0.3810446678132666  0.5745945928776742
  0.5687452477289179  0.3772627972658403  0.6783114507893956
  0.6349976363247094  0.3743364993612190  0.7039213186217742
  0.6550742088686160  0.4203598471429357  0.8759720819758227
  0.5873394584053103  0.4228092446123220  0.8125730698515780
  0.5537782991769332  0.3662653526683875  0.8379803094328699
  0.5961316942858631  0.3249078804502464  0.9179286203976846
  0.6558159289142693  0.3563418663847733  0.9417678617280175
  0.6493490569904644  0.6158909656318038  0.1601125541880676
  0.6395912865502117  0.5655532125781608  0.0841492173435774
  0.5829715104382445  0.6028134630852148  0.0614170152004796
  0.5536012209050962  0.6785194586477641  0.1202491847415006
  0.5913005598466619  0.6866187750970073  0.1783856297931491
  0.6520034905312001  0.6533258591221067  0.3460797542848346
  0.6101691712674134  0.5809612599830596  0.3054639202508672
  0.5598372747936844  0.5749151904430219  0.3538050959495068
  0.5640438968035791  0.6431661407952717  0.4278485774956621
  0.6180189461286435  0.6886659735255463  0.4241773545392707
  0.6406958535628170  0.6718194828159507  0.6285242273344492
  0.5814956149066309  0.6560699192260029  0.5593612298407694
  0.5578810342161690  0.5951281596819398  0.5867180833935989
  0.5991590826538168  0.5685328298119510  0.6722374372404925
  0.6485021315520375  0.6120591752993977  0.6982418378522670
  0.6067121077903656  0.6703972526298833  0.8429674164346976
  0.5342741673456732  0.6119863001192377  0.8293160645253217
  0.5557903144552072  0.5676232037297037  0.8783313491634888
  0.6410415417322091  0.5931901479280667  0.9270512914104355
  0.6727856818670124  0.6526789361708961  0.9053984113181964
  0.6496971217184189  0.8953531070849012  0.1385346298303176
  0.6109711259863290  0.9262443709684168  0.0592477598065753
  0.5580664348874868  0.8801333108373843  0.0609958008464742
  0.5587059886388529  0.8153049414633869  0.1377653275720375
  0.6114436491073575  0.8245753215211549  0.1837237667633363
  0.6721867528781100  0.8711059444987550  0.3671027678129060
  0.6125568269760024  0.8779777573904903  0.2991523167477009
  0.5545630901580416  0.8826858183855922  0.3393685591607378
  0.5752251677894150  0.8750083073389361  0.4395404177466354
  0.6452505740941743  0.8707684826793639  0.4545037041085807
  0.6568615338094203  0.8330006597902854  0.6244537017996911
  0.6517090696068054  0.9051605790199504  0.5683900589530129
  0.5913287340049687  0.9302245855608183  0.5977233221258366
  0.5531038568150280  0.8743767216683482  0.6717451118925992
  0.5915859132471029  0.8180546385157340  0.6887643910533159
  0.6565459151702345  0.8329174795322523  0.8721170574007555
  0.6421731831474199  0.8943451626824532  0.8051884333017214
  0.5825222617113008  0.9204385400126767  0.8352937894858702
  0.5547853916258559  0.8776996055880426  0.9199252131783060
  0.5971930868422644  0.8267487309149560  0.9435545855387909
  0.8962053762286607  0.1433707316435817  0.1227184414724382
  0.8052863749469072  0.1753615350473317  0.1257075552239100
  0.7794700824537995  0.1101684967860946  0.1254680816209248
  0.8409205552488304  0.0371272562288004  0.1205791788437268
  0.9112676396712825  0.0496783610961620  0.1193689782692378
  0.9057892688632444  0.0912529420936850  0.3893439786253926
  0.8635518980341598  0.0613359815159424  0.3122474875177573
  0.8140521193366200  0.1111989405450276  0.3131310525593549
  0.8190514758052416  0.1756190281027201  0.3905875963501273
  0.8726424558324862  0.1645650305368213  0.4349638092553186
  0.9058921846866687  0.1636016332378104  0.6083985854815802
  0.8849020084423607  0.0904129060312436  0.5559997331541988
  0.8286217815900349  0.0718387244765362  0.5955498945533646
  0.8096734759942470  0.1296975608441749  0.6734412014484715
  0.8529096909310740  0.1840571540890296  0.6826429758700439
  0.9315422060453935  0.1230153259149386  0.8746019362491102
  0.8946654688260175  0.1158615598203820  0.7912796444403657
  0.8269057781334331  0.1137879252401916  0.8137162518843544
  0.8172340800388249  0.1175390319217221  0.9151811338675395
  0.8790764297591429  0.1233381381530319  0.9491841935140258
  0.8927952421698132  0.4213470161772966  0.1356716972767692
  0.9135843473578777  0.3654615323855712  0.0651367195351404
  0.8618271778251988  0.3202320210712299  0.0797771404374857
  0.8019564918749661  0.3443974193589404  0.1571541831953890
  0.8211951517117656  0.4025450266266021  0.1919395932424146
  0.9027801302545232  0.3873092395580853  0.3459417766181120
  0.8555606450188137  0.3106568350473037  0.3189698202238621
  0.8067450947894942  0.3167308945264658  0.3685209006243222
  0.8170307280227475  0.3955687323968913  0.4298224644479380
  0.8732819171595763  0.4372657754350938  0.4163937906259053
  0.8918315116251905  0.4243496031906182  0.6132792744941307
  0.8129643017204742  0.4101428022392026  0.5659575995269562
  0.7972116894151757  0.3504375834753662  0.5994183984249424
  0.8623710302536650  0.3235781627875625  0.6707260139766441
  0.9183204577523024  0.3652879790100321  0.6804094772013234
  0.9073845273476902  0.3838981672170225  0.8994689124916119
  0.8699480298828519  0.4340622956069456  0.8324492330505887
  0.8160034774663920  0.3896267868449084  0.8209825100851507
  0.8139663111537415  0.3081903579783766  0.8817260869747496
  0.8677984341306958  0.3041559247998296  0.9265636055757515
  0.8993964532103705  0.6339995543941237  0.1479195208454926
  0.8744475606975431  0.6772243339743159  0.0708270415885873
  0.8198459600315420  0.6335864566180921  0.0575994999577418
  0.8061957291829115  0.5604261317051020  0.1243850020314177
  0.8515852720019280  0.5589362293760902  0.1772970051169686
  0.8952528796667052  0.6617821050508451  0.3534134432919974
  0.8730756764046093  0.5838662050797564  0.3116100782433274
  0.8191876662046088  0.5679913498623013  0.3551473554490979
  0.8044227968291577  0.6363081091779793  0.4292280040249659
  0.8480064784065117  0.6911379688754786  0.4277011204670785
  0.8574229999750782  0.6710296087081079  0.6592698391702297
  0.9234979991707193  0.6613725742614812  0.5956039669632620
  0.8917265417410166  0.6050053520978657  0.5663865114792207
  0.8051202348842668  0.5752775548078495  0.6098480498863601
  0.7842910761181319  0.6127936383912409  0.6649638839993638
  0.8890071383428940  0.6696031875076481  0.8637684670904932
  0.8977754756236400  0.6148653875921861  0.7897206569038635
  0.8455215607348666  0.5720169360534861  0.8100041998952016
  0.8012743147380488  0.5931009863731905  0.8960761200270958
  0.8254727718960556  0.6505846571468398  0.9290442530300365
  0.9188021325762981  0.8811268863418321  0.1330597803085287
  0.8945693241745654  0.8804994779646671  0.0441654824559580
  0.8273324486579580  0.8610404274200361  0.0566332951340663
  0.8075220887324532  0.8361802644800945  0.1514079039893218
  0.8581424655059212  0.8520850821039175  0.1973763472526121
  0.8623158137874016  0.9407909583453304  0.3714692496325664
  0.7803974164412927  0.8982616517230583  0.3730520992116453
  0.8089648237238151  0.8334964885009430  0.3734023978740273
  0.9137119786285272  0.8323797972993190  0.3719343750800628
  0.9432090465097526  0.8964131359448918  0.3709516298215418
  0.9023489412180158  0.8962729924842491  0.6406938269680403
  0.8594683858276050  0.9319567133672102  0.5662484056654272
  0.8084431344551721  0.8837395770349413  0.5655976613085572
  0.8138885830547464  0.8133269884871198  0.6369607928940590
  0.8681662462408902  0.8192375418408555  0.6809773818658615
  0.9004884785950661  0.8862771230100998  0.8426879581139567
  0.8674006740735476  0.8042146188486128  0.8128981989075812
  0.8174966018779707  0.8010115903154831  0.8620046489488311
  0.8115410252532185  0.8779377611458916  0.9241683235267671
  0.8593254083013576  0.9285577783148012  0.9160374297987117
  0.2328372645585217  0.9978388621387985  0.9929912535403372
  0.2382847318092197  0.9902580306943446  0.2435141469773698
  0.2375727750238281  0.9927011613202524  0.4754154588693877
  0.2367046950198309  0.9961317240896275  0.7343075651538589
  0.2400295766180567  0.2488806470218366  0.0009538154134441
  0.2247337695703896  0.2420803201707501  0.2491245543356346
  0.2347469011415452  0.2455299001294441  0.4978982148715198
  0.2343875607043186  0.2461171739257013  0.7489185221012234
  0.2303335675931958  0.5066286823020253  0.0080141673100464
  0.2232239258263742  0.4977311341352181  0.2499928099904557
  0.2285951647263783  0.4966111909836369  0.4886442148526424
  0.2318290472139757  0.4978603210697763  0.7485187818784126
  0.2353728743356378  0.7433045807459784  0.9896654850503044
  0.2274477625104092  0.7490362556154161  0.2513310127115975
  0.2369321207635988  0.7521329265337957  0.4942142348063787
  0.2322960002984587  0.7465612086234712  0.7498204888492457
  0.4824796239844147  0.9954255097780234  0.9884536198025353
  0.4828110241376706  0.9939836648878529  0.2406452882283031
  0.4919772220030612  0.9919774238252040  0.4911954937173464
  0.4807017723931766  0.9955389398127742  0.7415371287911600
  0.4849771763674238  0.2471709797016984  0.9988236880712388
  0.4818183968662361  0.2465597912234518  0.2518558955262313
  0.4861785902230378  0.2443738172975957  0.5073226739196519
  0.4926007393072658  0.2549501091349104  0.7434377837865971
  0.4825217518158609  0.5017430182492655  0.9992239817690906
  0.4799220716458788  0.4967170445951391  0.2387702748639285
  0.4855147276121473  0.5009589521276417  0.4943879582686588
  0.4852522398255186  0.4975919142189075  0.7509525468717920
  0.4811040210394207  0.7512405395575659  0.0082991320208788
  0.4724165159387687  0.7434577192200547  0.2622105025333481
  0.4761653111199430  0.7522058462690013  0.5024980384431476
  0.4802096087951237  0.7490719041285074  0.7517076973073906
  0.7387177979471077  0.9961714934020072  0.9937428487942523
  0.7270452624637025  0.9949147955322982  0.2462377231598133
  0.7298246460424337  0.0051479075512416  0.4975653411029511
  0.7395353297370683  0.9950821377646814  0.7463512146305542
  0.7365804042099332  0.2535965407006142  0.9954128412156407
  0.7340808604080586  0.2459815493714969  0.2508307860805508
  0.7303441867142656  0.2436489068654838  0.5060715020263992
  0.7286148717517025  0.2485029989150315  0.7580106228247685
  0.7393592922184121  0.4920981349525291  0.9962911145882712
  0.7334024913869219  0.4961764165387986  0.2589989373637818
  0.7279170449537236  0.5128501604296442  0.4949795425768380
  0.7278966228370385  0.5012554708889860  0.7450723615969750
  0.7321903343984955  0.7388788014958220  0.0065053082033272
  0.7317765373290747  0.7459592156123579  0.2552931733538572
  0.7322139425542130  0.7514980708760669  0.5072046501663228
  0.7354060680874789  0.7432748243515876  0.7473438949774769
  0.9938470125946746  0.9918251100687161  0.9988389969209948
  0.9790323505854178  0.9889155741965183  0.2343511534412792
  0.9830626409869191  0.9949983875574943  0.4918077062826742
  0.9856858814634335  0.9914414199931091  0.7439327174106026
  0.9926842623625051  0.2442249722392354  0.0005738577470494
  0.9754953468846657  0.2404553970314814  0.2501197199144203
  0.9822340642171533  0.2524665914101009  0.5006926738948023
  0.9868199075431667  0.2493380045465706  0.7485929870699447
  0.9847210850639646  0.4976749094788699  0.9927192230737549
  0.9748816455014515  0.4913135833984730  0.2470154855961121
  0.9853046482962344  0.5052368852434277  0.4950814265892225
  0.9814684128515936  0.4986746491449903  0.7435313009844419
  0.9817865552235042  0.7400631738952339  0.9775506097771532
  0.9746118251331783  0.7462870754850048  0.2342582296945520
  0.9801123737529215  0.7466948997046339  0.4969553929165772
  0.9809579987089043  0.7349633590282327  0.7379690741516354
  0.1211237239184401  0.1070605097966486  0.1177358871226310
  0.1190179039759107  0.1244248024690702  0.3727452037268574
  0.1210929840648877  0.1248656387034034  0.6111374439845244
  0.1231478720210055  0.1312465982683037  0.8622380408171580
  0.1253677979729641  0.3728330569763193  0.1239214753902892
  0.1132394137471170  0.3831963474903982  0.3732706974659477
  0.1312405830126765  0.3741681870052280  0.6212123143596702
  0.1097204822445132  0.3852226042725637  0.8741307781752781
  0.1218006021441636  0.6240565312443827  0.1305026152700941
  0.1212053874737235  0.6294512173551596  0.3699360226324082
  0.1176088054629307  0.6304272734817893  0.6239140219834960
  0.1072014862242877  0.6424227122228476  0.8641846421002781
  0.1187328506328742  0.8485240380779615  0.1155085860031204
  0.1135720334059538  0.8770536866131955  0.3651816469426694
  0.1200498426490979  0.8700548038720349  0.6237103154294131
  0.1326010824731202  0.8779519533077687  0.8636161438110436
  0.3660267349784317  0.1368304894143048  0.1102604292916432
  0.3859231174171884  0.1278583474704252  0.3761961559607970
  0.3754202026109827  0.1288295675966954  0.6240557718284667
  0.3687997710101791  0.1266747063669479  0.8700509380701764
  0.3708711431146439  0.3733288964610550  0.1312065180460384
  0.3659578357834615  0.3782733484134837  0.3749538272769648
  0.3715992881617124  0.3663390814080787  0.6179550173325538
  0.3749354302148935  0.3840712355384638  0.8755917934500101
  0.3625142507856263  0.6306822750808131  0.1217585973874409
  0.3666573771420752  0.6194765793411959  0.3557232456544908
  0.3811601408775768  0.6139972908880007  0.6154966981361062
  0.3759972934043346  0.6311411304961898  0.8716551812420787
  0.3853021166947260  0.8751034923008466  0.1210700343691704
  0.3578424337422656  0.8770629847648201  0.3671927637251576
  0.3686077281251067  0.8791070796316617  0.6202720463566684
  0.3741185605599571  0.8716121876898576  0.8541321510809332
  0.6142829996637960  0.1283300825950418  0.1119156150699034
  0.6210586762136869  0.1324031670209594  0.3649800934025133
  0.6117072077336222  0.1517557320880637  0.6226946862568580
  0.6247510897597063  0.1135753441914489  0.8742796003432417
  0.6208176543629643  0.3781278940047955  0.1324116155038081
  0.6153459729662810  0.3767100211629534  0.3769345776407104
  0.6330544459915793  0.3768611863749490  0.6248108677789423
  0.6228272454735226  0.3901114261663469  0.8768282250403252
  0.6168512663397338  0.6257776031989816  0.1318804085290610
  0.6156185794028072  0.6356471540968501  0.3640971529869244
  0.6156704477978148  0.6355830072263868  0.6287783439496026
  0.6033009315278504  0.6343167545167767  0.8673846464143544
  0.6130136575063181  0.8763104142758110  0.1225839970280436
  0.6289007963989192  0.8744774738520095  0.3766448479554337
  0.6228385410269108  0.8611247889705965  0.6285066156632373
  0.6212989558741577  0.8598319435361035  0.8742469556398670
  0.8618976372333479  0.1154855323313627  0.1228487302129181
  0.8698749310854150  0.1123436729733510  0.3741973963395603
  0.8710595494157395  0.1382023246727595  0.6186717271494050
  0.8872567218492837  0.1202037462841397  0.8703039525778946
  0.8680845583443414  0.3855017818442227  0.1290078570040955
  0.8660860020505092  0.3747000525275702  0.3673279949590796
  0.8670415742191301  0.3890736042600331  0.6220020608653588
  0.8701729307987284  0.3696723679955778  0.8800013955331054
  0.8645818737821199  0.6192457634553153  0.1249725998825488
  0.8616524838855598  0.6376559484784262  0.3691056573182258
  0.8536375041131441  0.6386021589404388  0.6302769126762691
  0.8622635272004976  0.6347293607280944  0.8594974352108693
  0.8778837295084199  0.8682127383844371  0.1214353153628908
  0.8618053630669105  0.8971201864318274  0.3720394432404071
  0.8656694800975200  0.8770157156302105  0.6249312024973038
  0.8658944419110259  0.8677142164772215  0.8630373074657806
  0.2619579762423222  0.0028053585292935  0.1176244252907228
  0.1150173525146499  0.9762247635061554  0.0321474818531491
  0.2237659236336114  0.1235451913201741  0.9961434003864815
  0.1079406939060641  0.9797929399126943  0.2468935058927635
  0.2310957764064017  0.1151830779622284  0.2619393599444957
  0.2432195396892134  0.0038497926806145  0.6091621276936597
  0.1101420952003788  0.9998562887491473  0.4798285118115489
  0.2291546767527900  0.1201004016014478  0.4836281229548781
  0.2304547016444863  0.9992547994151337  0.8649268636823170
  0.1115692342080306  0.9974344027512342  0.7211409402541649
  0.2315873611051304  0.1210978730137680  0.7523839540588346
  0.2180861245189315  0.2470180638869473  0.1258770496797151
  0.2415570438727736  0.3770475306930685  0.0146371131131735
  0.2585754348196913  0.2468281678098772  0.3748885891701107
  0.1009495893832869  0.2234562435760214  0.2624351491629563
  0.2098760471986377  0.3684747489861363  0.2519018586873956
  0.2185038516711106  0.2447015740847102  0.6263487354469075
  0.1083257477210068  0.2595975999357985  0.4826822951041760
  0.2300817540681440  0.3729525265529361  0.4924280548413456
  0.2507953577487217  0.2643866782841817  0.8779144663847430
  0.1116541867289146  0.2481473070356546  0.7717334061987678
  0.2273883653010461  0.3724409428856062  0.7430243144268417
  0.1098047171696554  0.5027857499113377  0.9662974472354682
  0.0974981794915261  0.4979806715371695  0.2665672299546051
  0.2188486003943491  0.6229588813177007  0.2515786095233868
  0.2377726194409894  0.4967376491053194  0.6128129358101854
  0.2382700751819677  0.6259565811133748  0.4780265047356649
  0.2463323559143531  0.5036350166031153  0.8689730679850098
  0.1054850090143756  0.5015716522238005  0.7749498504225191
  0.2411425328021541  0.6214650942757042  0.7327058784266970
  0.2230429280357727  0.7434993178784882  0.1094932083267627
  0.1099013947514742  0.7467382962517639  0.9739712773176311
  0.2425190315959853  0.8699911329647051  0.9831179670601382
  0.0987579208935667  0.7371360157704295  0.2254911036680004
  0.2466469256389448  0.7577308872955558  0.6157999837226434
  0.1087167860457301  0.7455848319687560  0.5057938487438959
  0.1057626508871999  0.7435768730784332  0.7244819441537983