H320 Pb64 C64 I64 Br128 N128            
   1.00000000000000     
    23.9778044364390368    0.0000000000000000    0.0000001023826801
     0.0000000000000000   24.5551408200555024    0.0000000000000000
    -0.0000031588308040    0.0000000000000000   24.7639522774861476
  H               Pb              C               I               Br              N             
   320    64    64    64   128   128
Direct
  0.1569868408508903  0.1035727844806603  0.1481390040519258
  0.1200793676295314  0.0650354828898646  0.0698754385866161
  0.0706599701901015  0.1169296307578452  0.0615547145366017
  0.0681291219726518  0.1887971284240579  0.1320365342546785
  0.1174474208375353  0.1844361298512154  0.1837924228038733
  0.1840922696630977  0.1199980858211084  0.3766448389149131
  0.1365863064685509  0.1180911165593614  0.2976006382476145
  0.0698397143655268  0.1138188446306467  0.3269165370062609
  0.0730301170815291  0.1148296092284394  0.4329400844986231
  0.1412160050369397  0.1181894952960214  0.4594049363351566
  0.1599086682567631  0.1117525106879613  0.6088484459667980
  0.1145232936137816  0.1865673341247555  0.5691783415909920
  0.0596486306775283  0.1850529262864614  0.6156606535469771
  0.0642719948920017  0.1142694080388563  0.6874656590619003
  0.1212513376476766  0.0699040316497707  0.6860783168780472
  0.1564025591570244  0.1272346120154561  0.8880313331652355
  0.1162893121266156  0.1744956077720101  0.8143324258373549
  0.0589845751768836  0.1312273517736291  0.8109815204112195
  0.0575270532862359  0.0528713400869979  0.8758573288554158
  0.1123073240359786  0.0497115364175470  0.9224979227493150
  0.1613835446698582  0.3418949362411504  0.1050622221567644
  0.1290283333527945  0.4132784208523267  0.0534752190861161
  0.0733491711486041  0.4289149437786473  0.0974541225951844
  0.0645056002882266  0.3660957462890425  0.1789020709191107
  0.1165128758104240  0.3169380826036936  0.1854018023668484
  0.1658789520810867  0.4104884638466101  0.3634743058859626
  0.1005222857418491  0.4219902252608158  0.2952862250917867
  0.0571780006551929  0.3694177353103316  0.3190943724145776
  0.0917653583046192  0.3191208423662090  0.4003733025855404
  0.1552313083921410  0.3430150876042609  0.4281287929859663
  0.1886072808864840  0.3737591004852933  0.6278608658304321
  0.1524680505106930  0.3747632465497686  0.5417546893897081
  0.0821692103981671  0.3782466591123561  0.5636582593271515
  0.0706039388443996  0.3813277107256998  0.6679881084452781
  0.1347003836499633  0.3793391401639369  0.7026243510216579
  0.1638033251705416  0.3954602435680753  0.8362204484814588
  0.1190902432290079  0.3146355420337311  0.8100013581662880
  0.0688168777017097  0.3191599022882233  0.8605743273430427
  0.0747589212736783  0.4003199341933820  0.9218437602961166
  0.1294524097173993  0.4461522054468424  0.9091202819332567
  0.1841110778969483  0.6269727433351687  0.1175846327642819
  0.1359517124346615  0.6277984322219812  0.0387485504169865
  0.0695611843017565  0.6273221738840218  0.0689446543655150
  0.0733487817808324  0.6261889179029081  0.1749700697387873
  0.1418305559001389  0.6258269078422998  0.2002862111755043
  0.1603503452239408  0.6345393660132786  0.3403688963308047
  0.1166916611871807  0.5535422004525631  0.3146091263715153
  0.0631466823328938  0.5598855920072913  0.3620672033323264
  0.0678507143709891  0.6439390194727804  0.4218270046279186
  0.1237687790906190  0.6881203361171402  0.4086531324789032
  0.1799566009596530  0.6188711459261647  0.6237141257119547
  0.1416992907306264  0.6133926479176729  0.5390227479560539
  0.0721184442554491  0.6171164077499984  0.5617972795470726
  0.0627517119057134  0.6227063857294484  0.6655536889171081
  0.1268391988308938  0.6261865579718076  0.7000377020602730
  0.1631670058942264  0.6693844906745207  0.8623250858827392
  0.1480927837846396  0.5919298765924074  0.8108241665577764
  0.0883450165968832  0.5720516341884730  0.8479927940484927
  0.0619059923439143  0.6339714460507335  0.9243203470156877
  0.1042191702941195  0.6911356570712118  0.9345102363404592
  0.1581526164420734  0.9208014567568127  0.1191783607199510
  0.0834661098251989  0.9138647437910279  0.0603393390320347
  0.0589748598682107  0.8526232688971939  0.0899001167424444
  0.1152844253608141  0.8158266516718736  0.1661108300452899
  0.1718678201947980  0.8556985189160555  0.1868915876581650
  0.1775356813273401  0.8728422211164026  0.3795149687356653
  0.1338562111049848  0.8719474760613669  0.2986222662695612
  0.0655169964406036  0.8770927500560166  0.3245983907749342
  0.0642470908908387  0.8780597223373992  0.4316502445228589
  0.1311107698933191  0.8772375541901271  0.4599868119292588
  0.1534928721960920  0.8906821164202627  0.6021769792539798
  0.1152187222973252  0.8063483319680216  0.5766069243559242
  0.0680882939182205  0.8055659849203021  0.6302520344963182
  0.0694779448723758  0.8859258230351473  0.6924002525141044
  0.1192628148430787  0.9362806273799633  0.6786638219188541
  0.1852923703128128  0.8732070696845363  0.8745208173089130
  0.1390079168291582  0.8707824805577589  0.7947340758889557
  0.0718268428263083  0.8706563875763047  0.8232821935609557
  0.0734932006141232  0.8714564897283651  0.9295765597772532
  0.1413512625281137  0.8726249400181281  0.9563435038041725
  0.4335876025392433  0.1184826050390906  0.1261774960858661
  0.3781743493835041  0.0437162667330013  0.1229594754836203
  0.3147057086985137  0.0790392747407161  0.1217442130326052
  0.3289494695040590  0.1862033348790554  0.1255261711614092
  0.3998753569919429  0.2053373002695916  0.1268683798807108
  0.4085387193558810  0.1441293058265918  0.3845986374187287
  0.3572573322294303  0.1737183650410531  0.3097105198099875
  0.3080302376404168  0.1215160325742387  0.3149904146239134
  0.3223801814523544  0.0556776811789043  0.3933955190409439
  0.3807184380710720  0.0693161376207660  0.4342470668383056
  0.4061518353457026  0.1313953295764688  0.6569664534666071
  0.3773543945145279  0.1753903085222562  0.5780171953050329
  0.3188605169156869  0.1337438352531286  0.5699616519203000
  0.3045973030982627  0.0613552363018829  0.6400096184018832
  0.3541111789366975  0.0584058960092909  0.6919867472457485
  0.4298116464572461  0.1351275847277610  0.8782229922265549
  0.3853015812072870  0.1425228971847809  0.7970051607425923
  0.3176527251309423  0.1386798737015826  0.8239317672368760
  0.3159633812825274  0.1271079326145259  0.9291265899649046
  0.3835507331521528  0.1252624458784130  0.9578457424597684
  0.4091696253512416  0.4116408489522421  0.1426256544881337
  0.3565319263371474  0.4380584930332639  0.0677395518767568
  0.3100868562536727  0.3835875763949337  0.0735960876584371
  0.3279413598648329  0.3187197657028650  0.1504565348741512
  0.3854402478079369  0.3345038648180436  0.1918747079382432
  0.4121449623812951  0.4066613122561086  0.3746437775621046
  0.3563852828888933  0.4263449421051282  0.2996964305278160
  0.3109576732570888  0.3720848566891495  0.3113864704126957
  0.3341840770923218  0.3123814289139389  0.3919186568831233
  0.3932033920189796  0.3330498996841464  0.4293131135008080
  0.4107552990320518  0.3338977942160476  0.6248301138986107
  0.3575168649445631  0.3166461847854297  0.5482035056616813
  0.3197976887219467  0.3774764562069034  0.5534519506053591
  0.3428646772184407  0.4364574965179226  0.6336278124179570
  0.3978122570945321  0.4125705371655000  0.6750337510143848
  0.4049112738888454  0.4242073673776808  0.8654412114655639
  0.3956360555942685  0.3647793652724395  0.7923254759692291
  0.3426629126274425  0.3266167812090401  0.8241225001905096
  0.3166035320076159  0.3550420463660315  0.9166526949816406
  0.3505110149616443  0.4135258991802605  0.9421014143368251
  0.4215979225753195  0.6270338741803853  0.1218860546829857
  0.3732382041829606  0.6304750080153237  0.0423581606605114
  0.3069966796113460  0.6288642376842739  0.0727162366454022
  0.3106517708301108  0.6248502600283925  0.1777534866313977
  0.3791156262995620  0.6239500641431250  0.2039938288089128
  0.4081070001435365  0.5958341937371023  0.3844743971802411
  0.3585362507740471  0.5567006050682050  0.3121047931350603
  0.3059704202409217  0.6057458912400892  0.3146322754991032
  0.3159476381524943  0.6791024643421015  0.3840120088724395
  0.3747434159928973  0.6748805481500556  0.4258675966577135
  0.3920268387653233  0.6711155508342153  0.6097717836815978
  0.3253021126275339  0.6347433955328101  0.5528554463486346
  0.3123568984671920  0.5779532562093791  0.5943229800467464
  0.3697337473929495  0.5733600387877232  0.6803416694104276
  0.4170662546386643  0.6263891949153246  0.6897773819309291
  0.4082266270028632  0.6551317986596527  0.8712793008609589
  0.3576255526819307  0.6806410258560327  0.7949777313720908
  0.3104497732269005  0.6265737963655869  0.8005435472418377
  0.3263476515699525  0.5622423246563726  0.8786025886358672
  0.3832547442838076  0.5777691892386481  0.9205091336919028
  0.4031658774973733  0.8871273423709197  0.1520448519316804
  0.3636237764804674  0.9276381501920694  0.0755872751709636
  0.3139275656053872  0.8763720364826970  0.0672892784322777
  0.3174275325024187  0.7989114855211846  0.1351719333511970
  0.3680811186113556  0.8049846643206088  0.1855263277569263
  0.4286485622670358  0.8634312504190041  0.3762176454578484
  0.3806578535046783  0.8635428939115674  0.2970277780033037
  0.3144679200505848  0.8720218901059312  0.3266902557072667
  0.3192772708509967  0.8790927751117680  0.4330976678120469
  0.3880909804999188  0.8745762811424647  0.4579711852229829
  0.4112806124678084  0.8731044446252340  0.6654448611143506
  0.3956059436962142  0.8203385681455976  0.5898157709164579
  0.3342232884934720  0.8552430922406999  0.5716098833557730
  0.3065449559394122  0.9329546037923868  0.6341806848433096
  0.3509027194084071  0.9430677060427525  0.6896609239381678
  0.4278523678739229  0.8730120099433215  0.8742869785181152
  0.3846186379339425  0.8673142870087843  0.7925698179799302
  0.3165310014526641  0.8651012807528135  0.8191771525000723
  0.3138910624628514  0.8698881559248755  0.9244160329090425
  0.3800370555976254  0.8736100984606705  0.9542819426989707
  0.6186072588621303  0.1659425923553232  0.1675777261720222
  0.6777118690398394  0.1660837598562078  0.0929771360506573
  0.6486286270794368  0.1054574412307758  0.0663768616758721
  0.5746967101655185  0.0611500791340817  0.1220802046974259
  0.5550414264665233  0.0960404228968569  0.1811097867256997
  0.6770674030648713  0.1132038129696557  0.3694366930248862
  0.6356711274187612  0.1972146517187208  0.3675256663603330
  0.5670851531813430  0.1721214911794791  0.3682927355882279
  0.5618937948255387  0.0659403456854426  0.3729218033416827
  0.6284298902511879  0.0343389863037250  0.3723067743186134
  0.6742954864311264  0.1425882628150101  0.6086475460975918
  0.6214959043685209  0.1050696612440869  0.5406971284921258
  0.5656614844054410  0.0872341380679399  0.5843609971454359
  0.5773024873862544  0.1174217238668448  0.6812381981056498
  0.6428017840355972  0.1455474006353337  0.6964301302032038
  0.6227545128645028  0.1799385392167274  0.8979812574617004
  0.6764680373175672  0.1480297607534318  0.8272692184347074
  0.6319833657300226  0.0921101863885320  0.8137512709394449
  0.5503284353885525  0.0822130616508953  0.8771761931393666
  0.5440916003525423  0.1323641991734449  0.9269383953405587
  0.6611634202516352  0.3901512452578605  0.1152108044281066
  0.5910551633681056  0.4452959337422006  0.1518130324450445
  0.5440769369590115  0.3910879196939298  0.1583024287571598
  0.5771037619276318  0.3000872413822691  0.1242491750078517
  0.6477747756542932  0.2975752416096634  0.1048605011408023
  0.6749208451657891  0.3687760046263012  0.3630973013084165
  0.6194340031414387  0.3681168924631253  0.2884490490367825
  0.5563161268403750  0.3692529700254307  0.3247481886998716
  0.5691197140012192  0.3684649352893949  0.4287248488207032
  0.6394921249217252  0.3675349111427632  0.4495150899445811
  0.6644640814822943  0.3867950512465773  0.6081233351405422
  0.6198792812463669  0.3112987824199557  0.5705194967584503
  0.5665623921223579  0.3108477678215215  0.6182828138997514
  0.5707318476616308  0.3868413787729205  0.6887304388023440
  0.6286072206937302  0.4301844895614177  0.6837658941560369
  0.6633201750538290  0.4110772926895948  0.8690089140448520
  0.6360467863326643  0.3364508778099541  0.8168748866056550
  0.5849879433279490  0.3155736173324187  0.8634266072745627
  0.5767304159469654  0.3713395127922506  0.9475773562713050
  0.6193547180011937  0.4287428203424410  0.9520899829485612
  0.6077910534144322  0.6822498444326843  0.0834386759336899
  0.5322055992405335  0.6234153479140490  0.0769362292970023
  0.5571709961540984  0.5792112220258914  0.1269389494510117
  0.6491646425701991  0.6041503521314150  0.1673722719790423
  0.6803359604466033  0.6651893936729709  0.1422318720663453
  0.6536835836234117  0.6591076810720786  0.3564075572488333
  0.6246149281596884  0.5844278854334741  0.3067292816112556
  0.5747140245353626  0.5641405943257792  0.3547121775288032
  0.5663669134351309  0.6243157646584345  0.4365536473208501
  0.6115729837574881  0.6802384057888480  0.4396510626305987
  0.6824650450244811  0.6324058257857160  0.6250244177434306
  0.6260814320312070  0.6035255897523180  0.5555249348358543
  0.5685231646591233  0.5907523914336847  0.5977485054541639
  0.5827457852298173  0.6147457806276940  0.6966896591662473
  0.6520430034467839  0.6317689612595769  0.7135633811347011
  0.6512747958430768  0.6537524898704531  0.9078908589683610
  0.6108697417375047  0.6948771070693556  0.8314178787071169
  0.5630684077071572  0.6419820512460684  0.8220815324828800
  0.5677467530383377  0.5645511816099956  0.8882295048221078
  0.6175202079621221  0.5702334324451317  0.9395201531260048
  0.6532682978856849  0.8918280480279932  0.1406108279161870
  0.6175685113560054  0.9309350543457313  0.0621181179752737
  0.5628981656292831  0.8839667470465792  0.0567901930670102
  0.5594077307249479  0.8107318557692055  0.1292556784217774
  0.6106494067381476  0.8156752863013315  0.1791819251487426
  0.6248088525395579  0.8184691195816549  0.3518214564308205
  0.5417815166751696  0.8570043849105360  0.3216079143119102
  0.5409162211595432  0.9076130831610451  0.3712946619307753
  0.6223601795576397  0.9051951343215739  0.4377197099683869
  0.6719282133262133  0.8538091882104262  0.4249053760967665
  0.6466952989251181  0.9237346864620967  0.6108724308372773
  0.5750005203958142  0.8912656868459938  0.5576235991556835
  0.5559192418538194  0.8391246861445880  0.6030928120971366
  0.6158126368292027  0.8337512298700479  0.6878406160173167
  0.6685464716121937  0.8820516678456896  0.6933903286920862
  0.6598198363231621  0.8351442330333141  0.8711362900456626
  0.6556354029373707  0.9108219333216658  0.8160695210459193
  0.5929036507825476  0.9352306001022216  0.8453083073670931
  0.5529366141956620  0.8764152784736279  0.9193941907215147
  0.5926384077295758  0.8189027552848058  0.9366829135959747
  0.9108824367827855  0.1374636742986689  0.1047620559086975
  0.8686323221309562  0.0611267728080070  0.0655145414556074
  0.8145526674527312  0.0591396511555375  0.1129021058728726
  0.8176776385647140  0.1306397823121286  0.1860186777493136
  0.8725127790834131  0.1776550079486643  0.1814326910709830
  0.8921393947138661  0.0737901491332587  0.3804229905480817
  0.9164968670582445  0.1321977567643156  0.3095042912933327
  0.8585753310654928  0.1747730994257815  0.3200345478557888
  0.7944624553091456  0.1488477471079701  0.3950535249909202
  0.8125103037405136  0.0896163022988354  0.4314456771004150
  0.9089089361638605  0.1360340591704207  0.5865212784606640
  0.8589366613186231  0.0589853518346963  0.5600739082597315
  0.8078143433853581  0.0669316721254482  0.6097411153989113
  0.8192444486234721  0.1497401998913166  0.6702227637109140
  0.8783103471456889  0.1902216849108351  0.6570370224449136
  0.9294632718996209  0.1248966870136180  0.8655475585354659
  0.8879971083969310  0.1253401086194186  0.7824245073445537
  0.8195550346869536  0.1309596774240110  0.8077352938591841
  0.8140561635028296  0.1327492690619090  0.9121443959841972
  0.8793183317062860  0.1295830427962504  0.9441468939957710
  0.9123454910819208  0.3749284733468071  0.1583985427721637
  0.9000584978465282  0.4382645607683962  0.0897171780169720
  0.8380368440354581  0.4066404432571292  0.0661178099413928
  0.8071950682377532  0.3238178276345516  0.1159530284504541
  0.8493188530739761  0.3044040275272054  0.1708310268546975
  0.8611581333881757  0.4403617077864606  0.3755115293462576
  0.8582643680635541  0.3908732325144966  0.2973713740668937
  0.8593202479220554  0.3271447907527346  0.3298134818963600
  0.8626219010863386  0.3333888715107163  0.4347117177780740
  0.8641151381860492  0.4010444482599311  0.4589438533193900
  0.9063120247366231  0.3398316948997935  0.6347040377321376
  0.8492509298344970  0.3145977065939146  0.5623036205726419
  0.7994078996590792  0.3646927576452532  0.5760293002265914
  0.8201821511771529  0.4261769005505142  0.6547859198614351
  0.8819239870716444  0.4116959629586367  0.6908040898482833
  0.8426789675379625  0.4054870161843531  0.8330351643896663
  0.8585246682139557  0.3117494903460777  0.8167219355876482
  0.8660755407890566  0.2984731378745464  0.8864987495058281
  0.8576455240604671  0.3726073858233691  0.9484859971533692
  0.8427426681188955  0.4378866597151813  0.9226062025517328
  0.9016694907812702  0.6741836079676843  0.1396914901319823
  0.9190694817068433  0.6209225153463132  0.0628406597278327
  0.8626648390242745  0.5776791819787502  0.0750168392333006
  0.8055448802468210  0.5977601485633420  0.1567146395204095
  0.8286411804516021  0.6534630874001879  0.1969000389401327
  0.9109381857524966  0.6204203234208382  0.4169735183916912
  0.9018919154443765  0.5549789465248196  0.3502982587578972
  0.8399383383569647  0.5847716214184181  0.3238501508624748
  0.8076646481412310  0.6693611199443877  0.3689669224062778
  0.8470168967665016  0.6917412485544319  0.4247772502584947
  0.9120359278700104  0.6309662635575050  0.6562467853901039
  0.8827227730149024  0.6796292217648299  0.5806955497202881
  0.8272732530406601  0.6348850924306108  0.5666530644781224
  0.8155361589582194  0.5566425413829155  0.6314291265158410
  0.8635795219502806  0.5530202786263618  0.6843289818077928
  0.9357981499759358  0.6292160084356379  0.8733933679636934
  0.8887179424625113  0.6246692921532856  0.7940549666962516
  0.8218282637116627  0.6326493023150849  0.8227945422408729
  0.8245198684774870  0.6410238470416559  0.9284689476365034
  0.8925606054470999  0.6398661131248745  0.9548586092868183
  0.9135769902349711  0.8705668413722452  0.0813716121148473
  0.8464638566952938  0.9347999122293741  0.0575304023824250
  0.8059886085726995  0.9233543540795844  0.1153448261571609
  0.8431307728441886  0.8530590207089773  0.1798466913126528
  0.9063420356921986  0.8211607827571424  0.1603074911618449
  0.9103312633277708  0.9188608187732130  0.3681535884095661
  0.8394358596502257  0.9192158514820268  0.3038350786657011
  0.8043985176639786  0.8637475358833301  0.3343079996263557
  0.8483846388340738  0.8241900145362390  0.4158427027656161
  0.9101544016030434  0.8561265487880694  0.4384321843503468
  0.8525636656552829  0.9080546255266443  0.5779264149778901
  0.7905319291921230  0.8429477861968152  0.6079507557090685
  0.8341487536692220  0.8213802294990726  0.6615521723594723
  0.9255430614414196  0.8705774902022763  0.6692653486289679
  0.9367768695082316  0.9235227584489520  0.6228411637425390
  0.9091004854887114  0.8909988262879454  0.9054688596214359
  0.8799443885235559  0.9462588722684779  0.8352505418329601
  0.8235486920403573  0.9037589684875406  0.8176457727214476
  0.8119410150662940  0.8193297747115117  0.8763621690403113
  0.8606715679422497  0.8119391357550148  0.9280919142991606
  0.2356650948101808  0.0034917374318149  0.9997104134482598
  0.2272182416452332  0.9987959892937357  0.2671926341686651
  0.2278080131449306  0.0024998172804127  0.5101423479011526
  0.2361042438846738  0.9959697098218321  0.7628226198371534
  0.2383911993674978  0.2451797080902018  0.9928604775813639
  0.2372821563746009  0.2502659474433255  0.2575076339653825
  0.2319835148774552  0.2481396117326731  0.4978609385594508
  0.2347310863520015  0.2529295027842774  0.7352399939482839
  0.2346205821313477  0.5080957763768418  0.0017688964969434
  0.2352478236522509  0.4921345810325199  0.2376002935489285
  0.2347522645134840  0.4975825519464364  0.4787432506822146
  0.2353685293881784  0.4963817623083726  0.7431386128984280
  0.2352147389653027  0.7521455988380106  0.0065232339980080
  0.2332361545715360  0.7441209422977177  0.2568459883530690
  0.2300109320924998  0.7388936707835753  0.5055620998245598
  0.2331625018635077  0.7504325473982831  0.7456410074281021
  0.4782802260932130  0.0025159766814300  0.9992488916218366
  0.4770061362723810  0.9891558440685168  0.2592436685187773
  0.4848818276199439  0.9939000457807838  0.5043690225668038
  0.4898727407237918  0.9972740954363455  0.7426254943862622
  0.4775134021815439  0.2485957125332567  0.0046781334001257
  0.4876778571741096  0.2484529576351164  0.2501362040606316
  0.4945413066726290  0.2453876907929564  0.4894589088028719
  0.4911188720301340  0.2554773086632852  0.7482479388288041
  0.4874726816579007  0.4978150816113558  0.0015097564370869
  0.4854488031969282  0.5007361514924212  0.2408403771997817
  0.4893949318180126  0.4912842613706960  0.5019290652006948
  0.4848735528004359  0.5029227494403046  0.7568560176589272
  0.4780142193524057  0.7553412523712046  0.0027838865830377
  0.4764071047242238  0.7398850197601696  0.2603770598117467
  0.4922211123031037  0.7503424631067975  0.5007905745569108
  0.4887669816446627  0.7555659988265286  0.7538210353409740
  0.7368074956845865  0.0089883986879957  0.9827796377617263
  0.7263050431041707  0.0035544893931676  0.2532250199616457
  0.7284442919761557  0.9946596566693037  0.5011176608141761
  0.7355228235390466  0.0079766449534027  0.7471909855090885
  0.7395759438891577  0.2485808680486435  0.9874912783305339
  0.7303498287992035  0.2436459016292428  0.2408555096201380
  0.7352900471129112  0.2403070420261094  0.5051391311235919
  0.7369567895093152  0.2581619122270687  0.7464117900986660
  0.7385315052295303  0.5053861565804469  0.0077289222294010
  0.7297513949814060  0.4982406255472279  0.2447921801388413
  0.7261381038380775  0.4914651327376089  0.4986198084051621
  0.7413798127060787  0.4987244460521665  0.7679689965868681
  0.7338605616561530  0.7582981842843517  0.0086383695456545
  0.7356473444172459  0.7544076269103461  0.2505892928349060
  0.7349246209461159  0.7526698480878657  0.5166542149021379
  0.7373368624909732  0.7501316241692867  0.7581942046797298
  0.9830223004626424  0.9987365391274916  0.9988558536472345
  0.9866767840924237  0.9976668896329967  0.2538210765682198
  0.9902501506231290  0.9970090083225979  0.4984408618535570
  0.9873275157461754  0.0014681275067953  0.7450615739571003
  0.9839148199472805  0.2607534687127517  0.9950513665168134
  0.9880200544265372  0.2493708383599774  0.2520324567272458
  0.9845914650645713  0.2519494757997462  0.4994546083899895
  0.9852683100771837  0.2590649068442926  0.7400994091664003
  0.9887819585816914  0.5016470323734443  0.9871139299382274
  0.9864507859989092  0.4988193471317232  0.2482587418372360
  0.9868235016404187  0.5048218612975977  0.5142280423957878
  0.9922149054792058  0.5038576379331524  0.7495050713189698
  0.9845553853999748  0.7564414627091730  0.9989278003128585
  0.9923180156813614  0.7551514122216118  0.2643185522114627
  0.9853049225088817  0.7498288631805390  0.4999245787954215
  0.9765030858088244  0.7506274882248448  0.7604567341705822
  0.1219061969033485  0.1236691561825822  0.1277195663782757
  0.1384452907575420  0.1172813003634639  0.3783309126202031
  0.1205914197017978  0.1267949940241260  0.6260547469045911
  0.1169147179553096  0.1134421633142830  0.8701117678678889
  0.1241519843433346  0.3643191686576432  0.1184497935835097
  0.1291670552392236  0.3835909527040671  0.3621241944195162
  0.1432602259467711  0.3762420018858610  0.6224487676463651
  0.1267966691725278  0.3813967013229069  0.8584146075107876
  0.1384161436934967  0.6269568313830699  0.1194909411302425
  0.1220639295781857  0.6214470453145360  0.3610042539614683
  0.1343965555075640  0.6190157386496667  0.6196566470099971
  0.1276876646631397  0.6425537084596213  0.8716934403076453
  0.1297303729809021  0.8858245786990488  0.1224100125741446
  0.1318078263188206  0.8750895860855400  0.3790775665682257
  0.1195100401065648  0.8726750832042860  0.6259861976541773
  0.1395773410598602  0.8724958959732636  0.8754492206066189
  0.3882165279096811  0.1245066207282782  0.1252390819778929
  0.3709329804215181  0.1218242107889962  0.3721984540476992
  0.3681595532876537  0.1177577357869454  0.6361171119634059
  0.3840217486313106  0.1342581707746365  0.8776005354506065
  0.3728926493588897  0.3872254844088326  0.1304729114219108
  0.3760607286115383  0.3806250677613519  0.3653987346734460
  0.3788903998177187  0.3635691045116716  0.6123508812155700
  0.3745561144600273  0.3906307457909232  0.8672345872869395
  0.3758592313352468  0.6268882234433446  0.1232120167809996
  0.3691135151589824  0.6145224688581418  0.3703011004612931
  0.3716340412467830  0.6326366873205055  0.6208589499265902
  0.3723135015965802  0.6303369256484020  0.8585349271734469
  0.3678663359793850  0.8672907561066127  0.1316963280616731
  0.3832205619737963  0.8687049611635619  0.3775962434416217
  0.3746773717394025  0.8816420511640517  0.6399679698408341
  0.3821691244505563  0.8709232917347174  0.8733199088145982
  0.6160285282262651  0.1327923865931005  0.1377664868332019
  0.6313574733741416  0.1156595924327085  0.3697452221770254
  0.6326876747921159  0.1264668142395140  0.6180821497819735
  0.6097598066778009  0.1429737949394179  0.8762285033112029
  0.6204797487186011  0.3725516402163320  0.1255792121915863
  0.6295232179398640  0.3689304674439375  0.3688932276230501
  0.6257733369597803  0.3715339705531123  0.6265154678563426
  0.6301052494556705  0.3838769984768550  0.8835524438546619
  0.6061151652768497  0.6459379735838851  0.1094675332948533
  0.6202739397842740  0.6331275909103280  0.3724212082702158
  0.6391360138442517  0.6209904330643473  0.6339175431981340
  0.6167364931252770  0.6336161173411736  0.8865730664618058
  0.6162229617147180  0.8739298741200592  0.1213842888592429
  0.6073608013166735  0.8538878131064729  0.3731393110874018
  0.6220427691973469  0.8886711548522250  0.6248083300547795
  0.6246878757991349  0.8636648112629293  0.8753735004268277
  0.8728830650486648  0.1201571945796780  0.1227730317712982
  0.8656782542334807  0.1091705171259274  0.3712447734689800
  0.8704976642456551  0.1249347061206823  0.6081051930410489
  0.8838968777581928  0.1279769209790467  0.8632321128125561
  0.8763940694825276  0.3712141739362139  0.1309915606008467
  0.8608366240137424  0.3957607509736227  0.3782537093594989
  0.8674951801599907  0.3622349738463294  0.6270656362178019
  0.8505749918140131  0.3774794477091810  0.8667327745282831
  0.8743553847688104  0.6395367779913297  0.1301825883400408
  0.8757278206223049  0.6229767613730933  0.3885758852242101
  0.8756509689776012  0.6168239305756776  0.6330666639539564
  0.8901838261184042  0.6327699325866423  0.8743902537779246
  0.8777294822724645  0.8775266380671441  0.1081184287017584
  0.8765011925721937  0.8887314742983571  0.3708652334677838
  0.8637722463443931  0.8828367712932694  0.6129642876345800
  0.8723789595737714  0.8791906133702037  0.8816258426983210
  0.1090616037873704  0.9973021644103206  0.2152017055786790
  0.2322925276893221  0.1241786951562256  0.7588427195332907
  0.2412580466809104  0.2494882964947164  0.1278507897304952
  0.1105553782273452  0.2452256086295507  0.0116150716877687
  0.2262349866764707  0.3774503498082750  0.0034370890019930
  0.2544998543715021  0.2615067433194246  0.8677181399610088
  0.2492779085266343  0.4929200860895838  0.6124735288122002
  0.1064537653062412  0.4911797383318513  0.4695596498056683
  0.2392994703366225  0.4978666792653776  0.8707459268704528
  0.2349481804637948  0.8710283076394774  0.5084836367093588
  0.2455095342082505  0.7560959740276951  0.8726063874975145
  0.1046888060316670  0.7469726991119506  0.7482297056640063
  0.4743037075917189  0.9887931940058410  0.1251421943525809
  0.3480339978713221  0.9862419659578667  0.2344463314065628
  0.4894198901391791  0.1169478515848470  0.2621513552864768
  0.3575766203265051  0.9977304963401408  0.5245652170944602
  0.4935702003512724  0.1161926663908312  0.4701667640991392
  0.4948798204911458  0.9885790742896020  0.8702144165744924
  0.4867924072446329  0.1265665721187941  0.7532201453138078
  0.4906654400802377  0.3736465730954590  0.0206275022213385
  0.4863380012202699  0.2365946050182814  0.6163953804222517
  0.3632357511463942  0.2313387001227860  0.4855302778023891
  0.4852201228582055  0.2628801902233128  0.8737011214131020
  0.3626831367085507  0.2515264664427595  0.7232630519998159
  0.4685340410273831  0.6277505021936656  0.9885458537770162
  0.4929585321392612  0.4946943821971914  0.3674206565861114
  0.4999981774168415  0.5082047602918969  0.6289589931756160
  0.3626889827382112  0.4836532770252639  0.4797694206022155
  0.4754768442882019  0.6185988250938059  0.4963177724941749
  0.3606551587793684  0.7404589817725665  0.5107972227562575
  0.3627908063734681  0.7539282865189367  0.7200920053457859
  0.7246682175327781  0.0022059721213047  0.1169682872541462
  0.6077260096911716  0.0244071188459972  0.0017932367480673
  0.6015541517336858  0.9694666209528532  0.2415489350700392
  0.6102289107751895  0.2476099078182867  0.9873854642778943
  0.7397056481646570  0.3786767234372447  0.0245575496041527
  0.7387957891853176  0.2419037049984483  0.3681947120927305