H320 Pb64 C64 I16 Br176 N128            
   1.00000000000000     
    23.5951630910410834    0.0000000000000000    0.0000001418311371
     0.0000000000000000   24.2177040402263337    0.0000000000000000
    -0.0000030658175059    0.0000000000000000   24.4311258008669299
  H               Pb              C               I               Br              N             
   320    64    64    16   176   128
Direct
  0.1866352156884163  0.1296848269197633  0.1239109721799611
  0.1401608093156803  0.1316949534752028  0.0422895712936290
  0.0715301529988019  0.1336758038167353  0.0711426153961933
  0.0722865271209081  0.1337896115569746  0.1777541285604576
  0.1409076133606261  0.1314050532387590  0.2063287807259518
  0.1613121048477553  0.0957734528447543  0.3851440432780379
  0.1101109106129787  0.0545570290534632  0.3131382811367960
  0.0590631611315878  0.1065953393084567  0.3123194641462295
  0.0714136220501914  0.1838319551245928  0.3786922706876007
  0.1294011197477429  0.1792490927004808  0.4230605478204291
  0.1679006719651960  0.1572451697766536  0.6316897138869091
  0.1167547496715206  0.1595455419165391  0.5505325075714093
  0.0726244404681421  0.1044927120682605  0.5689815042622157
  0.0892031313499985  0.0649882550415388  0.6626456340617097
  0.1450354506667159  0.0950805529478723  0.7006744621626344
  0.1641301544101324  0.1469901366252400  0.9042515584085881
  0.1310512726490878  0.1918108494895296  0.8272553436711650
  0.0743011475182889  0.1458642758106130  0.8169479254542518
  0.0665733014322867  0.0686144308342948  0.8870562191656930
  0.1189212154410593  0.0680965558328630  0.9375786159465392
  0.1547776949146228  0.3993432578834464  0.1461610750086410
  0.1114710463627929  0.4314735455156022  0.0659428774283327
  0.0624210439542334  0.3775808319931249  0.0639783712397098
  0.0697191774988976  0.3069157573018844  0.1384281680782441
  0.1218519543558179  0.3178526231926699  0.1881843957400337
  0.1770331510139022  0.3688401239268403  0.3585844198585316
  0.1152248742318822  0.4005739637573331  0.2920341815208079
  0.0590183701650049  0.4094818520209276  0.3381526563130351
  0.0781118499342198  0.3793741983057772  0.4357663175735190
  0.1497243770596149  0.3632762958246197  0.4492374002028328
  0.1872609924278651  0.3750148822537762  0.6189357490018242
  0.1395604161615766  0.2945592197957057  0.6056270662072351
  0.0715595909480588  0.3233659028414534  0.6120706233798511
  0.0738935767480512  0.4312242932058244  0.6288252035840145
  0.1434221775157658  0.4572838144909881  0.6329549461884817
  0.1644741307611285  0.3377499762782663  0.8812827279806495
  0.1169187248144400  0.3195893348907201  0.7996464099378371
  0.0700567174222849  0.3747861598560950  0.8072817747765382
  0.0827360384610813  0.4325587550858512  0.8920451739798692
  0.1384775631151856  0.4115586471361109  0.9359561755222848
  0.1603083983277072  0.5902382397180460  0.1356174755295642
  0.0972435861366888  0.5665052312603762  0.0657241179243499
  0.0520452017702612  0.6221453975139531  0.0789983089368478
  0.0808761773138003  0.6853650034388169  0.1544357810068187
  0.1445613534220039  0.6680639853265659  0.1889669878573808
  0.1854930903380977  0.6220002257684062  0.3745861974512327
  0.1375961645192874  0.6164185786549675  0.2942096346993260
  0.0697609321572757  0.6106175747801129  0.3239741105512621
  0.0731403268566765  0.6115172958933320  0.4318767088128027
  0.1421211446908137  0.6173075620151925  0.4580489720200938
  0.1615301628292441  0.5940686413490787  0.6231756593240072
  0.1334428039250875  0.6724933600049862  0.5736871978656450
  0.0735085706403818  0.6837151575029925  0.6148611772784305
  0.0588192361117913  0.6183525044316304  0.6919869913802859
  0.1087015335955221  0.5651489800943394  0.6990901062775458
  0.1809360780300326  0.6289839171694527  0.8777480123811559
  0.1370288383099201  0.6309693225189759  0.7950108860081558
  0.0675654104928892  0.6344055904678791  0.8219636768125518
  0.0654683268252120  0.6350435490536165  0.9293773749906118
  0.1337337266485896  0.6325404474640193  0.9586290704660534
  0.1533263358122624  0.8213287530051196  0.1395304794252835
  0.1820357391848615  0.8808052394399930  0.0690980665836124
  0.1243505767521509  0.9249279421389496  0.0778816448571099
  0.0520466362382665  0.8963062358487650  0.1477232501794224
  0.0698785047601779  0.8371453251365811  0.1866989688323959
  0.1614070869748608  0.9131924263334208  0.3717558139445174
  0.1008776491027214  0.9231559846477935  0.2972315725736196
  0.0564312587205147  0.8689031235106832  0.3177567577415918
  0.0862687990721299  0.8179086535880532  0.4021379052448121
  0.1474948748625844  0.8437702241524832  0.4355669999366004
  0.1652050599936388  0.8395225403445143  0.6546935307461228
  0.1231252164293376  0.8153846844375190  0.5724910895378000
  0.0723519610520594  0.8678379401001158  0.5752900415310044
  0.0792800945302389  0.9312921118582722  0.6578127131145487
  0.1315203994389556  0.9132992075547982  0.7062785072570336
  0.1623768706048491  0.8880621580155463  0.8527481673950615
  0.1199484177175712  0.8095471170558155  0.8144930722587913
  0.0697807133622609  0.8038806834571744  0.8669461519804682
  0.0722248614358011  0.8767997028397407  0.9395247364130821
  0.1260150763277484  0.9259914680649745  0.9345740540433829
  0.3988643881354442  0.1784366894033126  0.1163881655689148
  0.3294748791190858  0.1524571440139356  0.0546421314438408
  0.3089072247381319  0.0937132460632816  0.0933899627694618
  0.3652931415849149  0.0764002213583859  0.1785167752219876
  0.4171750541940660  0.1255718324585865  0.1945037568844435
  0.4337571219492760  0.1256967028215006  0.3710085670976455
  0.3897952607505554  0.0425121340557926  0.3695863285859292
  0.3202416319692885  0.0695351221037904  0.3705222850793810
  0.3182455640314590  0.1778499349789142  0.3735305996691329
  0.3861932261890246  0.2076498112483460  0.3748550472767410
  0.4144870903088894  0.1531357881831517  0.6019407665346054
  0.3432434321812819  0.1272880295297796  0.5408837725247263
  0.3034937189212287  0.0932292629957788  0.5915412328781118
  0.3378430684483682  0.1049261860209228  0.6875185462517508
  0.4063870807249206  0.1322705636704841  0.6950172215705824
  0.4057590977367007  0.1562132154849967  0.8991156306008979
  0.3644099647596564  0.1926038431011705  0.8195859599222034
  0.3196142478682441  0.1358022097244762  0.8106294041649519
  0.3288813545110327  0.0590835951704950  0.8789009337829689
  0.3769000522855294  0.0694635396104687  0.9323133631076744
  0.4109825090116211  0.3556188600327544  0.1181480681938084
  0.3836729172728237  0.4385665963054586  0.0775398190077553
  0.3211984138986461  0.4439210536044724  0.1162154938943114
  0.3027573384519747  0.3667017848129818  0.1823128250796769
  0.3537072273240893  0.3140928546231227  0.1850435850882996
  0.4286353458054442  0.3789223330746838  0.3670686760419931
  0.3760382651686170  0.3803232128984164  0.2893794991341130
  0.3100773900227523  0.3751750080749981  0.3227875397208743
  0.3190600626546274  0.3724838817850250  0.4297818195800579
  0.3898932378058763  0.3744001162502023  0.4525005314148363
  0.4114403512567962  0.3852359800486443  0.5905072474056177
  0.3615841223498424  0.3034335650274141  0.5732986162878203
  0.3134791050222600  0.3143939493804022  0.6262389686674938
  0.3290517941943253  0.4003290125058478  0.6830378445176329
  0.3863564684142323  0.4425774886791229  0.6619303699339011
  0.4311589998022224  0.3777576052833183  0.8806565129302817
  0.3880157015851748  0.3705207576700544  0.7980292919963226
  0.3186542842097710  0.3702261852088545  0.8236659548860324
  0.3149332504785015  0.3777536157438605  0.9317462837042577
  0.3831572678647437  0.3814251447360776  0.9612878346137002
  0.4016808333171414  0.5831549529583584  0.1324031664850106
  0.3456616846977423  0.5947678620637928  0.0551788236435552
  0.3133065036924154  0.6552631275515640  0.0808497500465546
  0.3453593258697086  0.6863352851198571  0.1728245593751931
  0.3988069456607490  0.6456900909502084  0.2040699567407366
  0.4040851184796397  0.6411514622683152  0.3901602140569557
  0.3553759490490146  0.6784740277043466  0.3148782233400476
  0.3093795642281094  0.6221728066689208  0.3097183812080375
  0.3215291641815059  0.5471119577746018  0.3803513334448398
  0.3757542274183248  0.5570703908358777  0.4282526148381142
  0.4116825525255034  0.6435122689033220  0.6426189313832618
  0.3745066693163324  0.6709175901577511  0.5575256289754927
  0.3211928342814594  0.6208960346734121  0.5591315136583214
  0.3163911122380312  0.5608805295740250  0.6404804077304369
  0.3671619601554997  0.5710192172387091  0.6915687003166366
  0.4349615368515716  0.6303261240825802  0.8763004779545466
  0.3895333523182095  0.5474159516957847  0.8761641879698739
  0.3207234791060309  0.5751828581283721  0.8744977124895800
  0.3204660808504641  0.6849681674902522  0.8724264033396647
  0.3897631475690977  0.7124665822822912  0.8744553671308642
  0.4011634990832236  0.9244804016869395  0.1402641640173819
  0.4221124828694721  0.8751789456577088  0.0605385054837016
  0.3676523403771275  0.8273235353281647  0.0704377871364208
  0.3092108385249472  0.8399411091760880  0.1548921555250203
  0.3269764189466909  0.8967003475750023  0.1967865438934585
  0.4140566343623175  0.8608179817034278  0.3430313187711292
  0.3625097931567738  0.9367087524374339  0.3104005315618832
  0.3124267859439855  0.9332707999874734  0.3629390024988550
  0.3250494313051337  0.8567511322686452  0.4308736998193012
  0.3835690496546958  0.8130311500735092  0.4203564772142365
  0.3983669360478234  0.8603436807793879  0.6438711950541348
  0.3510820893132176  0.8205825520262231  0.5694507162148306
  0.3062960405717115  0.8770766678076286  0.5601632009400348
  0.3205700614700611  0.9569532952986561  0.6254593828065579
  0.3740238226231054  0.9483046353142116  0.6746316619105563
  0.4329147957866370  0.8753162239990813  0.8589554330981031
  0.3787278779054696  0.8660239451154493  0.7821123188489961
  0.3134294076608961  0.8683357942432702  0.8164509778115892
  0.3241077485675121  0.8793977773054652  0.9230193243838434
  0.3952406585278557  0.8821502367191980  0.9445688969555383
  0.6591152358138365  0.1129722874109911  0.1539305938056953
  0.6429333144685623  0.0751627627242104  0.0689014955615761
  0.5883201459170946  0.1217820614042266  0.0519515854626734
  0.5655320790600883  0.1928004204617639  0.1266922955989871
  0.6067874262359940  0.1876795164756773  0.1859102356350189
  0.6639127038112297  0.1481315718036967  0.3587918351169743
  0.6273646776156327  0.0696041093690312  0.3168541254320640
  0.5723225115868701  0.0618030158800151  0.3644295801549789
  0.5686493517502362  0.1339000241335095  0.4395454051103888
  0.6217702988215964  0.1842877322243898  0.4376216590640151
  0.6675976977848339  0.1640540013804713  0.6130499282474292
  0.6405963124267356  0.0884442059023405  0.5607262383769519
  0.5819394719421310  0.0726621031300726  0.6032152735602574
  0.5672765986036840  0.1355807006395558  0.6834052013907289
  0.6160637664221795  0.1892384869255347  0.6906884815319095
  0.6643040667226314  0.1352091381330561  0.8240769864921468
  0.5975131398902531  0.2040069894521360  0.8383337802611354
  0.5618807065287404  0.1666512350270399  0.8901765636521431
  0.6012071720216196  0.0724341092041212  0.9105400972754275
  0.6623468453187437  0.0535390924412703  0.8737594988980125
  0.6540864721939695  0.3384254209378252  0.1156586689762449
  0.6293516065406117  0.4111732339002405  0.0582612903451409
  0.5774187755774888  0.4368858328365833  0.1035301374393861
  0.5629315039767141  0.3822199976136997  0.1898950758139273
  0.6075762831455775  0.3253318426737745  0.1990779229823469
  0.6761531069703188  0.3707557699210611  0.3758372622975891
  0.6139633985974642  0.4127253842082093  0.3145857196263939
  0.5595060918643306  0.4182406840938853  0.3627138507734011
  0.5798465535682383  0.3793526734048781  0.4559856387018996
  0.6502013150954093  0.3577704096252169  0.4665569288986013
  0.6149263190153542  0.3068087435023570  0.6301481734483237
  0.5270548928268241  0.3449223252874588  0.6282552681699387
  0.5505001730564711  0.4142143351025216  0.6295523551697183
  0.6623206003190201  0.4217977573639325  0.6282166488039825
  0.6957891366559894  0.3567694828716311  0.6303009470278750
  0.6622207022279417  0.3852211301797403  0.9075471620051310
  0.6377717759575476  0.4283150305998313  0.8251396121563089
  0.5765910896977198  0.3882719121022948  0.8162720171802124
  0.5579310401293868  0.3165545184800138  0.8883378529508970
  0.6067367391386763  0.3137068592610300  0.9424727424866286
  0.6751424335618664  0.6211798852700440  0.1279685679598170
  0.6347712520474311  0.6200238970584635  0.0428066963356009
  0.5644300636245793  0.6228089878816228  0.0667078365650869
  0.5571312402571340  0.6269602187628133  0.1733903872738527
  0.6232928488932101  0.6257144454947413  0.2061971335696172
  0.6584871041684948  0.6243520694794591  0.3349137928655341
  0.5933911428432862  0.6954779981127959  0.3457675662676720
  0.5563943675059819  0.6606175385528468  0.3984281163002578
  0.5940261060480690  0.5679959356464928  0.4247596851714468
  0.6538295434849876  0.5451448460855614  0.3873251988069540
  0.6613844054943410  0.5779357588318244  0.6197136884606211
  0.6671121318555049  0.6465008854043059  0.5541865522746011
  0.6076358533951519  0.6827513961793763  0.5801441314699316
  0.5597970806324476  0.6403149295531445  0.6601404491171520
  0.5910924798327103  0.5789109190171067  0.6859293300790343
  0.6584811715736336  0.6101591111741156  0.9016645514957987
  0.6290232312337389  0.5665407918931019  0.8220640048828092
  0.5737156098406442  0.6136765101710293  0.8097864063924777
  0.5643218105631441  0.6908995558410613  0.8786640598717099
  0.6122155451723489  0.6897730834538411  0.9331498388832394
  0.6628756241124457  0.8341101853208984  0.1147178871285038
  0.6452479907140135  0.9121122040525708  0.0614011248574833
  0.5878394039794363  0.9339093223504937  0.1024485767326418
  0.5645638172678192  0.8733915792809653  0.1829317462802093
  0.6074379940256353  0.8151589415315574  0.1911834753335737
  0.6496995105663070  0.9293899417332269  0.3834932824398318
  0.6714127974012357  0.8702216521610802  0.3105582350382285
  0.6159055718971062  0.8250406529473813  0.3255080158863012
  0.5527828124537707  0.8515233062361540  0.4037762868947458
  0.5731512051210480  0.9122311436101177  0.4395958920951687
  0.7020657825594453  0.8737161724682678  0.6286670838566291
  0.6659473452592317  0.8774921948440484  0.5406749973433812
  0.5944110287903442  0.8773528100983413  0.5631241250763670
  0.5812673610340647  0.8712513783117057  0.6668762966872022
  0.6451972663601441  0.8684826464041426  0.7038187226652094
  0.6722051988476458  0.8430529039412075  0.8616858319715492
  0.6497982449434060  0.9186947477358426  0.8072612157626050
  0.5884627813140143  0.9353847855104850  0.8455068123972189
  0.5673888724984670  0.8740492663221024  0.9246354583211008
  0.6147118508850249  0.8203072445434824  0.9372366877761588
  0.9104244404198983  0.1652962699283357  0.1178148508470639
  0.8886358630828062  0.0930363633247293  0.0598504836829142
  0.8260673518005279  0.0749842138198380  0.0957623020494870
  0.8043583511255312  0.1329519736833477  0.1780459739950798
  0.8521956338556387  0.1859829474749957  0.1929251841119200
  0.9033943526810352  0.1527285537741472  0.3467517930325317
  0.8752588598100340  0.0755581165676899  0.2960892856890948
  0.8241127591088309  0.0552323173662671  0.3441807608631398
  0.8150367720219012  0.1158906597370319  0.4272638521609209
  0.8597714367427790  0.1731624524445453  0.4303525397506899
  0.9400298261930043  0.1210064157342199  0.6220847248959299
  0.8891429998124832  0.1124950761813496  0.5440513127106574
  0.8222538697927355  0.1142544985564217  0.5759821541139307
  0.8293070776186348  0.1270014325571211  0.6832518618961475
  0.8996894562871912  0.1280848850924157  0.7068231024047031
  0.9142237379500338  0.1284817486091004  0.8372059373282064
  0.8551723527932371  0.2044106623018250  0.8264331016571540
  0.8105405715711556  0.1860690085181857  0.8808466504350998
  0.8367811334214832  0.0987619188151732  0.9299810183389602
  0.8974492765409373  0.0634167387383808  0.9048294187622645
  0.9087282881242322  0.4084876826626576  0.1368132564983448
  0.8603613141107640  0.4332534380545706  0.0574457103036543
  0.8078344937104920  0.3830313928053630  0.0658853725121541
  0.8183274102983191  0.3215235919906340  0.1491446810843129
  0.8766205565617329  0.3369741488138503  0.1917335621872515
  0.9148161185744684  0.3880333572611920  0.3961176474377703
  0.8753036136969771  0.4393204968070910  0.3247986600415860
  0.8166704052621464  0.3950722672693203  0.3179446879502220
  0.8128600159349373  0.3143512722017122  0.3827562376204975
  0.8690206299195175  0.3085705997388699  0.4285369285460789
  0.9144172145927266  0.3608424473205478  0.6569651381448450
  0.8962474146447206  0.3126730909108098  0.5778579693148189
  0.8389707757989596  0.3557683998435274  0.5582246228073549
  0.8168554281978132  0.4334180049475943  0.6233648350272731
  0.8597820040092561  0.4372025610429365  0.6816530022577010
  0.9276679350903748  0.3722356873099466  0.8983513373803474
  0.9072539908385219  0.3884051080731423  0.8067584751077382
  0.8346764670545852  0.3730597015421001  0.8137957201886801
  0.8070787206466019  0.3338594770783204  0.9058738972100289
  0.8592951752771850  0.3350261607791452  0.9564433823619793
  0.9117024555122679  0.6426008912610321  0.1007597755818146
  0.8625140622165133  0.5717263047652864  0.0550286509738462
  0.8102884924226585  0.5669162205928383  0.1055661291438642
  0.8206210406152872  0.6303292099531997  0.1856973022859813
  0.8791763162923995  0.6747531859672159  0.1850791741000551
  0.8997420744417334  0.5715586996028680  0.3613834343010560
  0.8239815316360580  0.5901629649315330  0.3047983267189864
  0.8003895253011691  0.6473477708871079  0.3445105192183328
  0.8601958581214290  0.6695237699346384  0.4264968223328288
  0.9177369226209570  0.6255217155790233  0.4387637650639278
  0.9099114155785102  0.6433742145433244  0.6598759380028043
  0.8803008732506511  0.6964887801006981  0.5865136809836788
  0.8299744254940232  0.6476478041255134  0.5642804757964972
  0.8241959991516465  0.5609195205153771  0.6196153065900992
  0.8684153101732972  0.5571010329359453  0.6769430418113316
  0.9122077398415908  0.6595385697764233  0.8736072283425982
  0.8808179911694917  0.5896316892800669  0.8153637821951952
  0.8217812922632026  0.5737235688532295  0.8561187135219832
  0.8097608967692055  0.6307133673727874  0.9410245925754163
  0.8615155339308540  0.6810976064322301  0.9532249426826502
  0.9099128821945435  0.8885884780070843  0.1530876272654869
  0.8683389063033059  0.9323754666825557  0.0778470996475319
  0.8164106369302800  0.8815903196289526  0.0695061246237004
  0.8205196382102008  0.8017721640933680  0.1354436856557217
  0.8729159536493059  0.8054859184540660  0.1861853504210451
  0.8965284947621569  0.8214589113328468  0.3598488700672208
  0.8234255289842056  0.8552700777127400  0.3042817668201307
  0.8091094504763098  0.9113360128772390  0.3475022203430239
  0.8708341221765850  0.9201540746100766  0.4303065769592123
  0.9212748640553438  0.8679404941992994  0.4401716902171708
  0.9196644589081227  0.9089922949702296  0.6163546885177240
  0.8919594607466971  0.8359505050691382  0.5619514206364817
  0.8329937392823317  0.8186437696449844  0.6033542701366295
  0.8195372333448284  0.8792497153605310  0.6865661313508387
  0.8680615010783268  0.9332729459167366  0.6945719778739544
  0.9348154594618555  0.8733637451177324  0.8768041905553390
  0.8909563374299323  0.8702511579759820  0.7938463966840897
  0.8218198296752209  0.8635893379674944  0.8210898100641235
  0.8197834734483085  0.8591593690194426  0.9269708041484067
  0.8871867221325054  0.8657470392780282  0.9575609121752447
  0.2470245655568728  0.0030778600067206  0.9996709480950389
  0.2342615938456900  0.0014503534281398  0.2421499733424201
  0.2307686499371165  0.0034939823235572  0.4948185170553241
  0.2401361530050375  0.9967468305487543  0.7544546008192653
  0.2360983523386908  0.2539328545020098  0.0059061659999953
  0.2350723554667544  0.2458124143484582  0.2507467973527800
  0.2442899502010346  0.2462600115965717  0.4937182832037438
  0.2419867543863687  0.2495724191379694  0.7470266768235079
  0.2379435641053196  0.5034381840448101  0.9973833879203117
  0.2314657088592932  0.5008815661026156  0.2463233862539564
  0.2351739513991587  0.4956843090884289  0.4983643533618604
  0.2383308459532819  0.4996280438877218  0.7546801819029441
  0.2358088810008288  0.7518636796145662  0.9911243364705231
  0.2346419806686860  0.7581402542879495  0.2610737181535908
  0.2413590976906622  0.7459577952798866  0.4983093682922887
  0.2358267915704911  0.7449765710495448  0.7411617501744976
  0.4940935111456412  0.9978612191060965  0.0001252133889770
  0.4920710878967173  0.0026010093720740  0.2486584687188763
  0.4884784298848778  0.0066945137200224  0.5083353130820139
  0.4895463464009587  0.0080788963195881  0.7540585193288974
  0.4815717712434667  0.2586280058867591  0.0069462423561889
  0.4833125828093758  0.2519521655955476  0.2590456728661988
  0.4920285282134922  0.2491272416919606  0.5030928862216939
  0.4873350921380512  0.2552641548305331  0.7519818939953863
  0.4884687343447921  0.5044718385543627  0.9970887708839231
  0.4800149650947588  0.5039257206225310  0.2599507029136255
  0.4881830421758054  0.4968341243491821  0.5069908983236671
  0.4872836689498130  0.5000160749262129  0.7551357309185066
  0.4851164130543400  0.7471953335345267  0.0100571734095643
  0.4837891012025686  0.7560350757134805  0.2528654350169325
  0.4977121085808308  0.7518484936620797  0.5065983110335018
  0.4877339563351911  0.7473233830348959  0.7503897388959905
  0.7429425331354798  0.0033180066264455  0.9898097058249965
  0.7377467580640908  0.9911405051141486  0.2358272832338157
  0.7401277331655566  0.9969853736325334  0.5021283245307143
  0.7471841410459152  0.0089137094880148  0.7445661872447942
  0.7337767170361444  0.2458323417861329  0.0074243347311372
  0.7348503932386018  0.2527887676593165  0.2584752310491010
  0.7399412102124008  0.2491788503091303  0.5076292195640211
  0.7393252589403053  0.2589718498153170  0.7541367843321760
  0.7311159748743153  0.4979893188826321  0.9966553487694351
  0.7302711221455358  0.4948571914261884  0.2450851596305260
  0.7410683997201815  0.4999690380932320  0.4948451546124161
  0.7394263425642648  0.5052507133017111  0.7485866271667516
  0.7406538605613732  0.7506293342407908  0.0025406091168060
  0.7380431028766868  0.7431967969816110  0.2511914098780419
  0.7416820133687224  0.7537408598008326  0.4962085885415505
  0.7465296244092080  0.7464677953344370  0.7555356341980463
  0.9916289402286771  0.9976298676060024  0.0052478281425803
  0.9800943447668751  0.9880863060735167  0.2452324475351380
  0.9878453345179643  0.9991625781034851  0.4853318708976985
  0.9934633643649280  0.9986107501326250  0.7597760433399446
  0.9795345741973930  0.2475881458810262  0.0031363199766390
  0.9873506272280200  0.2549244056833738  0.2531604309690485
  0.9929059515563212  0.2473921295766665  0.4985300898298833
  0.9838175084507760  0.2514037098636112  0.7555181633833836
  0.9821142503032884  0.4961915593083126  0.9939557609191593
  0.9835137003170772  0.4993059893061511  0.2365463046000433
  0.9877195234375993  0.4937851706244565  0.5051764731522118
  0.9925270506555820  0.4981007458896983  0.7513383472651212
  0.9911266787997322  0.7483887769686882  0.0048522662689268
  0.9891751330092731  0.7398831468018835  0.2578259728652212
  0.9919554029516510  0.7449579439619252  0.5002084897470062
  0.9857143870160350  0.7517810910231879  0.7487139867706694
  0.1401859457547215  0.1314579750469542  0.1241818954280536
  0.1228010879570783  0.1156087995135572  0.3692680680331670
  0.1330344191722156  0.1277120111542327  0.6255737160626472
  0.1263324720102989  0.1310423175048912  0.8832302321515419
  0.1192895137593484  0.3762078960444887  0.1282428721656169
  0.1331459676210301  0.3786544890879807  0.3698779809256947
  0.1407714174982137  0.3759815669372920  0.6195539768105174
  0.1291444344859780  0.3645760379714627  0.8688014148012289
  0.1226949954177251  0.6159544596836609  0.1282370508415864
  0.1392833494469255  0.6172481695354557  0.3760117931322791
  0.1232287417314336  0.6170458659246928  0.6349949648780194
  0.1344902431894658  0.6313465862177449  0.8768254355628967
  0.1270769367947453  0.8573236301117392  0.1290303248285453
  0.1251058448235635  0.8850769722569098  0.3673286884001076
  0.1293116303704962  0.8640936846355906  0.6396053872708485
  0.1258456942051334  0.8689576540471855  0.8732338350814445
  0.3739210836672853  0.1407983024432566  0.1240047015827212
  0.3872649916950116  0.1249531107012290  0.3713024678981969
  0.3766550142230041  0.1315973433498515  0.6170405925254396
  0.3731562422533472  0.1325241579963638  0.8772100399749975
  0.3712501486795937  0.3756240155498411  0.1307060498936426
  0.3823714103653200  0.3766064654204115  0.3709147303958134
  0.3751401419816150  0.3741161940407608  0.6164893389639123
  0.3847128246221437  0.3760590020520377  0.8796428469244731
  0.3721729409848569  0.6182857707121813  0.1303616700376602
  0.3686574883274877  0.6183458821260085  0.3716821980693837
  0.3746119919867011  0.6221834699515245  0.6255276956644220
  0.3884699392079540  0.6300995791378147  0.8749860245860137
  0.3757395794165762  0.8880838435747894  0.1293603176690401
  0.3757927670726736  0.8745099756406450  0.3647871064830736
  0.3641532443285242  0.8830343315266725  0.6233178537184836
  0.3866159848586216  0.8745736748796440  0.8633957044714319
  0.6259468320532987  0.1308928459566347  0.1277454465959637
  0.6264332887453450  0.1278208361279940  0.3763207505902190
  0.6301907242721788  0.1398349755960847  0.6248369272818071
  0.6309130373287640  0.1291190350922672  0.8549604008407993
  0.6202966015596239  0.3671738013956139  0.1279201087420420
  0.6330125955566821  0.3811964943796216  0.3890879778146859
  0.6113457889375581  0.3520148002621349  0.6300010131051668
  0.6239934185355874  0.3724459760125953  0.8853012229652849
  0.6287997356264686  0.6228106848210651  0.1245702686694891
  0.6247093460093414  0.6204581614978454  0.3656597112314364
  0.6300754204442900  0.6116014250339266  0.6200540532998009
  0.6224894126585901  0.6270793409368157  0.8785240175583262
  0.6281550953790538  0.8623493946435655  0.1256871133470085
  0.6233998049592674  0.8926659992832414  0.3761742259202066
  0.6560509057670078  0.8741348896850460  0.6226593336051319
  0.6342566578139174  0.8678203856708594  0.8708177742900360
  0.8719834784557073  0.1407294190580295  0.1253093461634902
  0.8694886058667117  0.1257357429337003  0.3621583343880153
  0.8936382840840690  0.1209426250691082  0.6253340494714795
  0.8778486342746165  0.1337880513473813  0.8649174171935207
  0.8701220812723582  0.3858687476354269  0.1252783443568785
  0.8746136047096921  0.3747388669049059  0.3775138571246688
  0.8794489803361409  0.3742601502570004  0.6303815299457340
  0.8845130004282590  0.3653515546795172  0.8829877963584473
  0.8728599185187688  0.6250812521263834  0.1184661505717275
  0.8715788580404497  0.6064621345418398  0.3709869903234715
  0.8768812425985326  0.6274413760551812  0.6324217446088952
  0.8734674773050840  0.6363673960157851  0.8836178969872174
  0.8732595986449344  0.8695863904582133  0.1327339210111719
  0.8737229070578539  0.8592217025150677  0.3714529346333454
  0.8820927887276778  0.8847671655570440  0.6278872543693449
  0.8885574990508466  0.8687421885061976  0.8756705237316240
  0.1080158120853768  0.2552217667916754  0.9809235037363272
  0.1129182560513675  0.2433564530578111  0.7247236638883170
  0.2529610373469926  0.7504464027508584  0.1280414730292922
  0.5015683805088456  0.1283940443489414  0.9821997233410985
  0.3598427750367935  0.9829259210951291  0.4891979558328525
  0.4968715638343261  0.5092513020869165  0.1282591064962424
  0.4892131248969075  0.6236856367424078  0.4778902263386350
  0.4913247353824666  0.8779059527359923  0.5365916481943341
  0.3625390419368854  0.7516271968489058  0.7097862323462578
  0.4818797344821070  0.8793732825593705  0.7301139383491970
  0.7221454914869644  0.1206950353389240  0.2530345046699536
  0.6178490853339733  0.0125577074532762  0.7303476820815280
  0.6167089721051903  0.7524583943568183  0.7665739056211137
  0.9781982511930594  0.1220668535786146  0.2403300718599349
  0.0032158170169680  0.0022416022817632  0.6275664282865259
  0.9866780052136828  0.4890442188324409  0.3697780988341254
  0.2468163625291292  0.0166210532568485  0.1183271114236383
  0.1200248703320074  0.9981263590441588  0.0071086497304553
  0.2286021561161910  0.1281828432302731  0.9924080418547369
  0.2347476489162641  0.0029056281458703  0.3647533255448345
  0.1098990908432879  0.9934752527359481  0.2333275100544518
  0.2318388654674250  0.1247957909621139  0.2537751914320679
  0.2407466786539330  0.0146986005951677  0.6151182747751802
  0.1081193991825482  0.0042261868583744  0.4767217073759560
  0.2409575249709371  0.1235478345428087  0.4737730640520770
  0.2496672518839621  0.9931437625896942  0.8719894333848636
  0.1182079647273795  0.0036730948516773  0.7751080510912366
  0.2427185856493354  0.1215594670019782  0.7442804307751918
  0.2319159606047802  0.2498617126991254  0.1224448077417929
  0.2304843721552914  0.3800626224568145  0.9872315796059130
  0.2470657624913885  0.2612719755911373  0.3698274693530350
  0.1115828114568912  0.2492315844805968  0.2654605789891393
  0.2254513504115635  0.3756174461267232  0.2485775542483531
  0.2344786022338921  0.2461207387050519  0.6150800956690217
  0.1192224290870759  0.2431747313857624  0.4996357299378448
  0.2392086822252786  0.3707270126475854  0.4968347838684296
  0.2269696560583328  0.2487800357383466  0.8627481338041012