H320 Pb64 C64 I128 Br64 N128            
   1.00000000000000     
    24.4879928969696401    0.0000000000000000    0.0000000497847375
     0.0000000000000000   25.0050565264943927    0.0000000000000000
    -0.0000032828485348    0.0000000000000000   25.2077209129784343
  H               Pb              C               I               Br              N             
   320    64    64   128    64   128
Direct
  0.1256372186130699  0.1673696694012477  0.1141420831216839
  0.0478306159459223  0.1316049772286214  0.0738801883090132
  0.0458547566383298  0.0755033960917095  0.1152512432630239
  0.1187851398012351  0.0715540560169820  0.1860353536123265
  0.1668102309652249  0.1232871665864181  0.1852960126625770
  0.1584765183908529  0.0998042426215727  0.3370918984578596
  0.1092025048249299  0.1782635647089464  0.3218726733886803
  0.0640520922902902  0.1667982033470843  0.3741117339228633
  0.0771361638466397  0.0809821068383294  0.4244137210604870
  0.1330479672461129  0.0409864503179758  0.4038404837831360
  0.1777869842948611  0.1099662311122537  0.6190691870307183
  0.1277465683418367  0.1277064234882284  0.5438802253819688
  0.0683931024502192  0.1460973544327922  0.5797594358904091
  0.0763983803920248  0.1400228907672518  0.6788588129457905
  0.1417362611494893  0.1228127216644157  0.7028421018146837
  0.1588939682341096  0.0910287793498097  0.8890406080090892
  0.1091680475840216  0.0551851962408095  0.8182091888523394
  0.0624149466366419  0.1079622427109221  0.8172125539593443
  0.0768326726043613  0.1806082356590079  0.8853469549104962
  0.1328211076983176  0.1715132764197524  0.9278996882376686
  0.1833935038844861  0.3743197449855977  0.1277029899867772
  0.1418996539020887  0.3760128950172067  0.0468842117230150
  0.0749796316044331  0.3765371945996657  0.0721926464367746
  0.0707798731797305  0.3753169248224496  0.1757588357413507
  0.1360750259232955  0.3745069480207452  0.2055944685599707
  0.1583360961926313  0.4059157729454811  0.3584009626836726
  0.1365979443500386  0.3263653000300224  0.3160492695080023
  0.0804056735456176  0.3127534910485988  0.3575190885961118
  0.0623197292409182  0.3818960193122599  0.4288190303449178
  0.1069379987177785  0.4365449346949393  0.4301713789685924
  0.1730942434737915  0.3602436621763655  0.6245430401634939
  0.1337852514304172  0.3693723422284708  0.5425380035644708
  0.0668590993844195  0.3765835656409759  0.5668185895805615
  0.0604459673722554  0.3728676201262764  0.6700922206258373
  0.1240492104021906  0.3629467475693199  0.7011099526451254
  0.1582358612756682  0.3563647326003451  0.8430256029950782
  0.1049491675811828  0.4302850039787385  0.8195557815370096
  0.0597930985576910  0.4217590944051606  0.8722198396823211
  0.0783855584958900  0.3426178025408543  0.9324435756764946
  0.1371113681444990  0.3047538510474842  0.9156369853499172
  0.1599675240255646  0.6656693340418401  0.1153355178207459
  0.0899928848238742  0.6631591392910851  0.0523993045137472
  0.0608214623299322  0.6048017613359106  0.0799407547626006
  0.1090142338855856  0.5649706813599645  0.1570612709588307
  0.1668634015028554  0.6003463069327751  0.1803360456504737
  0.0989375109027161  0.6901037363883585  0.3710181221929948
  0.1046764429276437  0.6503034034130128  0.2887757653474967
  0.1153819192944740  0.5854252023030108  0.3143235469894718
  0.1225514484607524  0.5813444768730214  0.4158650917574107
  0.1110801137693909  0.6426393063023168  0.4480501682327721
  0.1609712502156045  0.6180225645400151  0.6591334833767034
  0.1432743892274041  0.6801596801769072  0.5938332607780923
  0.0818003552315677  0.6480940580822313  0.5734018738976038
  0.0583810081693544  0.5640105923504799  0.6219796514755722
  0.1026249672765601  0.5457846257539147  0.6736593117844204
  0.1533024213098971  0.6628428739303833  0.8687604879773033
  0.0950562543362563  0.6711036470511881  0.7962256777534463
  0.0563136004229666  0.6146935561206124  0.8140113077354707
  0.0867487057913485  0.5657961269991294  0.8958069591642368
  0.1434192863983697  0.5933679520086075  0.9292020414959208
  0.1622526711927979  0.8677619590374812  0.1174965688452073
  0.1134991003720785  0.8652831645406691  0.0403403624278964
  0.0494447004218664  0.8719829429699072  0.0709463746895043
  0.0547390754761103  0.8771395567288679  0.1748409763351216
  0.1222629978037300  0.8759525587265033  0.1985467585266002
  0.0909090578666017  0.9298429585910150  0.3671685885199094
  0.0484690984069278  0.8654291532947558  0.3145243412760085
  0.0582577622359043  0.8144100308897180  0.3608558196521070
  0.1075290256371045  0.8399742978339988  0.4445521344478657
  0.1206425278288053  0.9090384832252890  0.4523508894176400
  0.1239533510454722  0.9227246292512252  0.6167435811738738
  0.1742133287581195  0.8479418729834024  0.5896391176345339
  0.1182245844625622  0.8049326125288586  0.5959426882804179
  0.0302277428928125  0.8455754071863165  0.6216333385627323
  0.0306180913748492  0.9157025987254669  0.6329806686840750
  0.1516324850902649  0.8831050850995430  0.8339483355861259
  0.1037978540184717  0.8066655361235020  0.8074884524075530
  0.0517629928406776  0.8156354959867852  0.8538011604206649
  0.0612831532581222  0.8974558168074709  0.9131549493133558
  0.1195738249437335  0.9371982698359724  0.9014787336994741
  0.4027321545569525  0.1646393300007195  0.1279874433682123
  0.3464208118151246  0.1558203498846950  0.0541548147515638
  0.3120080416933977  0.0998768279871965  0.0808940212788123
  0.3420402908040356  0.0692418535648129  0.1690122009529332
  0.3958338345243960  0.1060985165997161  0.1991054808004522
  0.4059618734816836  0.1075451567375421  0.3971057386675965
  0.3615047475794740  0.0670012033426309  0.3241849612757875
  0.3114330384747144  0.1164161766662690  0.3210129679335569
  0.3176366382221523  0.1906119086210360  0.3875895411524640
  0.3712136159464979  0.1865191345488599  0.4336058292771833
  0.4207554346660304  0.1326088586655450  0.6211781974398862
  0.3803059941612064  0.1246910432312897  0.5399858219030848
  0.3130440331671920  0.1211674308411259  0.5652957787848700
  0.3081923854479017  0.1278651392552100  0.6681890518246534
  0.3722792884076721  0.1345644715949600  0.6986444707543938
  0.4040801179234654  0.1200263527674220  0.8350767426088826
  0.3458053187733128  0.0464881085378991  0.8348710451497382
  0.3057388860907552  0.0717986685052772  0.8872601728598929
  0.3336674078751302  0.1605478355712847  0.9237542883297933
  0.3921385195475965  0.1900048786744168  0.8942097254585006
  0.4283731697342694  0.3688606911135819  0.1353227646256400
  0.3979785967481309  0.3694212385545512  0.0482936315018450
  0.3304144742359344  0.3872163373702010  0.0657920729293600
  0.3178305689450655  0.4123694164218928  0.1620564571178557
  0.3734155369618651  0.3969751737924014  0.2040707298007979
  0.4198436137281284  0.3680991317585898  0.3616344454731900
  0.3602139698766010  0.3232776261858023  0.3059032755314683
  0.3092859824675677  0.3165968105587629  0.3541403266188317
  0.3298451535449672  0.3621978957793245  0.4425406002456239
  0.3976258579828798  0.3846558831632154  0.4493549519063670
  0.4051140700512942  0.3766042722459304  0.6657085714887631
  0.3852860188599094  0.4287046276563895  0.5931587409519410
  0.3289186659620085  0.3891589428367238  0.5733756774963361
  0.3106468693327926  0.3076261051121014  0.6312095485106768
  0.3529732597072558  0.3008199031270706  0.6866670044269686
  0.4091317201427462  0.3301629884413553  0.8825711012989796
  0.4018793263749412  0.4024968405102425  0.8250200883040897
  0.3399962006250484  0.4250267743025042  0.8538355291094663
  0.3035149582066844  0.3705224402742883  0.9278391133403178
  0.3423539869291163  0.3145660548916426  0.9467143508112658
  0.4223716772770555  0.6202989214129035  0.1213375892334880
  0.3701471580126599  0.6214579574077030  0.0466031861513765
  0.3075286721256769  0.6255270974116313  0.0806609174712499
  0.3172225646966986  0.6251831178963281  0.1832675795424308
  0.3858738214272538  0.6241036557614639  0.2050689290069454
  0.3867400544751011  0.6512584288341898  0.3334314533135083
  0.2999796024404663  0.6808850210930346  0.3559184032991490
  0.2924866479688968  0.6351266363661647  0.4082955399655595
  0.3728135235096817  0.5740172176460693  0.4239596905878263
  0.4283254157902239  0.5813311907561101  0.3810492206022155
  0.4147919753830460  0.6553342966793931  0.6273083980596710
  0.3720590359798324  0.6818403314098194  0.5487175893430486
  0.3207289395457412  0.6337440695057459  0.5532110667950988
  0.3252389483603322  0.5732014441844074  0.6349261599276015
  0.3805789049359188  0.5859628308307169  0.6775515133024232
  0.4064153388567447  0.6129625618166019  0.9098326773509059
  0.4044798027155206  0.6823668934168936  0.8490978274802905
  0.3457031827477639  0.6573609708998803  0.8163769114155103
  0.3055153854044881  0.5744780630387576  0.8545295296171558
  0.3405922662967726  0.5458280610048402  0.9090161318265606
  0.4277999578558653  0.8742736585210528  0.1184382868264956
  0.3757378492638681  0.8688267893313455  0.0438898416975236
  0.3128192929402893  0.8663946159597707  0.0777806235655732
  0.3228815001238578  0.8704311698679980  0.1804297500931831
  0.3913383634406526  0.8748275350770754  0.2021874276823521
  0.3501448412120579  0.9387402393051856  0.3756043904375105
  0.2737753696793411  0.8859315846596907  0.3700224059289713
  0.3107371996349646  0.8259675121872267  0.3619380418814909
  0.4149927522306825  0.8371742142968364  0.3646996587851540
  0.4370431160611855  0.9038784158255310  0.3706615246916848
  0.4361293172377526  0.8810007493937779  0.6193299141926077
  0.3959751542580752  0.8782445337403231  0.5380237684522909
  0.3284020855587224  0.8751917420891508  0.5622896563687181
  0.3232019595634990  0.8755871102641788  0.6661973443458146
  0.3871249960734708  0.8781743794052144  0.6969940885342016
  0.4021079590606215  0.9063538549661089  0.8670484928537886
  0.3921533218218385  0.8296510162616004  0.8159892177196839
  0.3309228219952137  0.8106001495008499  0.8480677715342154
  0.2979440932662958  0.8711238046896895  0.9189509371124982
  0.3380206302131324  0.9279987905086308  0.9323445779145232
  0.6335753664232673  0.1072689607470692  0.1649687402376953
  0.6619958185884435  0.1834272514328432  0.1180113164326190
  0.6070813346311977  0.1803376977079120  0.0739389912293592
  0.5388703139659851  0.1070367353083962  0.0889432546383706
  0.5536714145622275  0.0630214754199053  0.1415951755440594
  0.6126249647390632  0.1865261669742806  0.3551109640151621
  0.5910853315187193  0.1210971172872048  0.2947165898109623
  0.5840139695086647  0.0707030910969731  0.3425722365887185
  0.6047537599689867  0.0996793534463826  0.4375909388641478
  0.6168105766782178  0.1687514756498997  0.4454919906733927
  0.6727502917267727  0.1066051529519178  0.6287643469490832
  0.6577955761703689  0.1975728063380237  0.6134375405752606
  0.5892474116640695  0.1947852530792439  0.6340760316868209
  0.5581601312251971  0.1060805135510662  0.6708298489105560
  0.6057549351629371  0.0541584424964540  0.6688333438558149
  0.6433712819539323  0.1586413715160399  0.8694485962303008
  0.6365668071858622  0.0901092349265636  0.8084374839816519
  0.5801502226921261  0.0601690429661090  0.8411567165634669
  0.5478613990024052  0.1062319719745842  0.9228828068603587
  0.5842503145980318  0.1638162522235540  0.9417434258093610
  0.6462589779747536  0.4170662975314716  0.1200587349597621
  0.6456167170206402  0.3578296182444115  0.0492218035882927
  0.5911540218880322  0.3197306497308603  0.0756481267413346
  0.5552595578133698  0.3490808026698390  0.1629211737951127
  0.5859764312122179  0.4065662480690121  0.1908705671641102
  0.6512914715280987  0.4205964156108641  0.3589057904846788
  0.5695400092583429  0.3993774874034315  0.3180238732412515
  0.5564124426375389  0.3443678205087199  0.3597925339497298
  0.6271526792562082  0.3266330513424652  0.4297413186609748
  0.6835002089288584  0.3694402571109006  0.4311785540672007
  0.6555800150156392  0.4083376942542912  0.6188959221417430
  0.5856390087366377  0.3976742859492605  0.5575859818719793
  0.5530735568246671  0.3473089630565397  0.5953634956277899
  0.5971209144471507  0.3237549146204965  0.6816410596541189
  0.6580484366010134  0.3579887139134010  0.6963845678906729
  0.6531925687568989  0.3756946401614489  0.9117045701908328
  0.6412396166277012  0.4345162242787757  0.8419585472477671
  0.5823999432739503  0.4006715240341421  0.8177872486921276
  0.5535057760907985  0.3204632000750934  0.8690870450666449
  0.5931458968267923  0.3038926962161266  0.9244929362170292
  0.6574713810991230  0.6466024275225385  0.1315319327106215
  0.6114238480361430  0.6712766883094248  0.0536401281982124
  0.5622016440864439  0.6212883313056530  0.0603139978251256
  0.5720412047378900  0.5604096559014089  0.1394153815773852
  0.6270595919441875  0.5753143587793961  0.1820670569492427
  0.6600111461220186  0.6537341919394002  0.3591782823730419
  0.5913615633439129  0.6587898656895108  0.2952263365362065
  0.5519892565926016  0.6085276844390693  0.3256965088104788
  0.5907800220590778  0.5669078616601737  0.4060208581172591
  0.6535995422714351  0.5936146268925536  0.4294424625682805
  0.6575779791576183  0.6206367870044533  0.6651247849468405
  0.6585361220060251  0.5548880176660960  0.5999102713512633
  0.6054130089235102  0.5853806554349976  0.5634696572081369
  0.5680388136096483  0.6697772709316000  0.6001945391976864
  0.5972765977077056  0.6923303269167322  0.6604465822993058
  0.6429352600870221  0.6719268155826910  0.8762307895357397
  0.6658711782100726  0.6162500388801565  0.8051116589667219
  0.6121641975921358  0.5719198159089147  0.8171310041225944
  0.5523814932842122  0.5931409757322089  0.8958027990043363
  0.5696602591979485  0.6524374409132480  0.9304184597659900
  0.6439623247030677  0.9048831174918618  0.0952211720592383
  0.6177018045829178  0.8247445413631529  0.0566452389858765
  0.5638263426107530  0.8137974734985817  0.1015952047237762
  0.5513921967595888  0.8854158203586193  0.1715322231426995
  0.5966728393062182  0.9393772574693907  0.1684956492874033
  0.6722565698597126  0.8766445652308583  0.3665685043843009
  0.6265247280077945  0.8734144482459926  0.2870572998991237
  0.5611316192710897  0.8746163315863371  0.3159556574840681
  0.5625534515310565  0.8802773814845585  0.4193047449750503
  0.6290319502634037  0.8789281697166453  0.4460488974748975
  0.6513661228968068  0.9078606271147124  0.6482852431290309
  0.6095507203310259  0.9448822874113399  0.5736912873715305
  0.5636079340938263  0.8919653607176409  0.5660522504892292
  0.5704740830840279  0.8184602144291484  0.6345317885467006
  0.6215831839394906  0.8264646719960617  0.6827038668847033
  0.6531619090771696  0.8608441038322691  0.9055313929055281
  0.6422259575223325  0.8140329103076860  0.8270667183621189
  0.5817270114145491  0.8486084361011574  0.8095512336103926
  0.5508445474787038  0.9191215085238839  0.8741713454638492
  0.5911826479459991  0.9274731248272613  0.9304890648399582
  0.9148193568086070  0.1237639951883100  0.1039068905169900
  0.8442759375797437  0.0927790720086185  0.0506995209008377
  0.7985321319592883  0.0856937424848189  0.1033307617405544
  0.8329771050835614  0.1140813437723987  0.1921628362409142
  0.9033233028542306  0.1294740347792123  0.1960603952136278
  0.9110918616090002  0.1523580094783764  0.3742897919936892
  0.8448104358100361  0.1719383647556249  0.3103648838561226
  0.8032096493951899  0.1178148286837220  0.3295956270318620
  0.8371033556879464  0.0611942898670416  0.4029660700659095
  0.8999614337581017  0.0804173181812625  0.4316662956675727
  0.9084659482425802  0.1156929023191441  0.6603550305809172
  0.9046909910013615  0.1698853936247678  0.5865999092092534
  0.8431851291681421  0.1410057046632449  0.5628255912705528
  0.8035431187723112  0.0680986278953274  0.6204362624531075
  0.8412602640397200  0.0520310670118307  0.6774588478047808
  0.9278355718948058  0.1216066923534792  0.8672939753848294
  0.8797096321595551  0.1167162498643105  0.7900400791857514
  0.8152948664159443  0.1240848961349875  0.8196625953788743
  0.8197331257969307  0.1354800643418418  0.9223054940001625
  0.8866801937603417  0.1338065676593134  0.9481008093053012
  0.8932367522384997  0.3921741393965403  0.1386505146000340
  0.8499805653963410  0.4232147470875159  0.0609212488444221
  0.8029298390791998  0.3709689067984390  0.0601000973408937
  0.8114301184324650  0.3029417128397227  0.1328745310236167
  0.8632097657833978  0.3141269908772231  0.1797881057419771
  0.9115262957750327  0.3748831974428486  0.4003049188714502
  0.8851285581309074  0.4333284803544914  0.3349404458961527
  0.8287967831915274  0.3936104294287351  0.3143621023384714
  0.8153942777906663  0.3081490910370762  0.3667792613757040
  0.8626267002649374  0.2967865006331577  0.4176053539220401
  0.9103517983351128  0.3841356524838058  0.6010836341224766
  0.8735340939692149  0.3054784768956317  0.5640322818815100
  0.8223586572724235  0.3008892954609252  0.6124149401467586
  0.8197627927845528  0.3732969782975640  0.6809498269679853
  0.8706212424642961  0.4221719735392016  0.6764434973634161
  0.9092471382056425  0.4122662493948834  0.8793004870291907
  0.8513365597827534  0.4204643421193986  0.8066421141058928
  0.8113255080008090  0.3650724685904055  0.8251682526273137
  0.8407946548379219  0.3166286437707259  0.9069706568912339
  0.8977513487554483  0.3438576527207896  0.9406740023509841
  0.9172008351398449  0.6237749396043851  0.1251665548780949
  0.8888113278881152  0.6099624007325620  0.0384143705926890
  0.8205855003697812  0.6278967974732123  0.0510167609584157
  0.8040303214523270  0.6656669698278992  0.1430128461837695
  0.8588703962259052  0.6604398492369640  0.1876426339881485
  0.8963124071949663  0.6649844121362556  0.3535969631681036
  0.8883379157017565  0.5954199348997417  0.2934156306902492
  0.8333052274821884  0.5653316100537581  0.3286203042908690
  0.8028677669823632  0.6125752734006976  0.4109467450306652
  0.8385708291627012  0.6714600954299581  0.4262412350327629
  0.8976545957424319  0.6610617079197120  0.6270200213061728
  0.8412324530690529  0.6850815795587344  0.5564014236521507
  0.8056136421890399  0.6246173715227232  0.5564760308760591
  0.8345300680761298  0.5582181020591443  0.6270413664012977
  0.8892117757861839  0.5791997331309647  0.6678945820146299
  0.9025591950106678  0.6240095820243304  0.9032378284694152
  0.9049553030404597  0.6903766692455450  0.8389968053979117
  0.8476748056738890  0.6645813603633679  0.8047326270844434
  0.8042641073973823  0.5835592194630933  0.8446717393907359
  0.8359790194907678  0.5574378709471660  0.9017328474825625
  0.8991239029943541  0.8624977915634791  0.0899006871640895
  0.8508938604766678  0.9393565629966707  0.0635294689626181
  0.8047496185772837  0.9353565050935694  0.1160370296850846
  0.8179801431394016  0.8575850356473532  0.1787841521290870
  0.8729491788746885  0.8146908101073668  0.1641287315324871
  0.8627103579911317  0.9234845930342312  0.3309687663480089
  0.7869840507068455  0.8706047637235240  0.3130718973522162
  0.7952804367467060  0.8308753427279765  0.3694922458059389
  0.8779312340221390  0.8536657863262866  0.4267433834728636
  0.9176115659244536  0.9081066607221663  0.4035490217464233
  0.9017369639127902  0.9155625013770757  0.6172465522378381
  0.8882836166555813  0.8469333138401169  0.5571619902417994
  0.8287611540242941  0.8230265528893193  0.5896543795528130
  0.7994886087216713  0.8755593710653523  0.6701110802834888
  0.8424596846688509  0.9285429834858494  0.6882823486997002
  0.8949996405459661  0.9077693210814475  0.8556282831747002
  0.8850993730690516  0.8341101559989673  0.8001739371478115
  0.8277605168552293  0.8094081918521008  0.8357084261736896
  0.7981602536672668  0.8628928016561297  0.9134787090561366
  0.8355822708866900  0.9213139907159387  0.9264876448202092
  0.2303080159744421  0.0002843047385338  0.0033450963138066
  0.2358093494314409  0.9960332120240263  0.2523795772852311
  0.2351287731921362  0.9910767216833513  0.5061010272779246
  0.2369789093518609  0.9909848048864236  0.7491342835924306
  0.2340785734377223  0.2464015938197032  0.0180533582165680
  0.2363784130140029  0.2403457383883043  0.2499106845015461
  0.2307723349000168  0.2458454329347300  0.5001595788223069
  0.2355233470441718  0.2459929203666647  0.7792256660692699
  0.2385208964992817  0.4903146582373835  0.0030844677739688
  0.2395345224073019  0.5005410047046506  0.2559712847288887
  0.2340404281762932  0.5064640133834215  0.5020593170967169
  0.2331720671938741  0.4935456957361046  0.7527859858144161
  0.2317859906610447  0.7444739647161579  0.9952325468357290
  0.2312250159527826  0.7440526086416497  0.2436296571204706
  0.2424390440405700  0.7500674533614846  0.4934137577604816
  0.2344983656114138  0.7446093460475456  0.7440629166301956
  0.4676186453440317  0.0043355626678448  0.0099989820908709
  0.4791014553405038  0.0008952089405963  0.2463386142505810
  0.4793443445592159  0.0046276389530456  0.5010978786808391
  0.4788316398382872  0.9956064074639733  0.7509442867862095
  0.4784532168271016  0.2470444262927335  0.0023940035050475
  0.4826651398395155  0.2425544946518531  0.2536034684382779
  0.4775108797696881  0.2508213753663888  0.5032920590786861
  0.4798853509794476  0.2468362533071950  0.7603322268827570
  0.4775603617768956  0.4885606851321557  0.9993501999047134
  0.4786624396262331  0.5059916980409964  0.2556142668150414
  0.4910623779379189  0.4949895075590728  0.4975633949591731
  0.4861106593092837  0.4991358556534343  0.7472077865859694
  0.4764526344341845  0.7519808547915863  0.9998427322763701
  0.4783484172232789  0.7516061640362369  0.2442125160345152
  0.4956906917100832  0.7512113532131954  0.4949297786364203
  0.4878294383592339  0.7407283070932523  0.7531856900199743
  0.7203688325155178  0.9996743660603050  0.9898352688375810
  0.7251928544221125  0.0019036693526882  0.2513356450321101
  0.7346407882833762  0.0017231554047510  0.5095133503086060
  0.7246120048144873  0.9880523366203053  0.7564339223363783
  0.7297266642913490  0.2493536837760440  0.0010748822435039
  0.7341034766532976  0.2498352425879292  0.2490925452183350
  0.7435079820117847  0.2539071432218459  0.5023965667252474
  0.7366229486009404  0.2469058473400561  0.7486998217919050
  0.7281651166377909  0.4942378675658848  0.0017858338048344
  0.7369352601719900  0.4949875146019329  0.2351305374910604
  0.7483861638114805  0.4943945068905549  0.4896719238060128
  0.7402673849688121  0.4927275732782158  0.7457713798327406
  0.7346375798094834  0.7448138694038168  0.0024674949085317
  0.7250226286405856  0.7445201464281852  0.2427132848690759
  0.7204670560176913  0.7527723743223002  0.4987854997956733
  0.7344032836960164  0.7509903011383612  0.7338962167638780
  0.9806925148243588  0.0009939155737658  0.9970477269397513
  0.9770508765890618  0.9918671723881566  0.2606458885543356
  0.9886230418356953  0.9885874402461564  0.5111222251759313
  0.9787868325033722  0.9921040021578901  0.7570603526526746
  0.9791136671275822  0.2401372348949188  0.0106070284853120
  0.9800107066032137  0.2451193392783927  0.2424001279855507
  0.9943058628224710  0.2436378120911110  0.4968936501033933
  0.9830127171495713  0.2472476986298799  0.7563564900184100
  0.9882758761945156  0.4967260916693886  0.9997239286039470
  0.9835899487671579  0.4966175355162003  0.2449908281806994
  0.9753421184675550  0.5026068575861903  0.4969131469735391
  0.9861448762120242  0.4959279360421943  0.7464695518870287
  0.9768088417611657  0.7499048097614393  0.9997634058087627
  0.9806366351436180  0.7495609884870621  0.2536222304558432
  0.9828619942671952  0.7499861206744987  0.4973481909614805
  0.9876959395496255  0.7456058186581799  0.7367996911041236
  0.1082036652031939  0.1296036691292427  0.1287416104023202
  0.1231060955596898  0.1092053158005460  0.3623312714939711
  0.1351135877244278  0.1229252581460411  0.6231560239874109
  0.1230001863670546  0.1125602914542519  0.8738647155943069
  0.1385663647243429  0.3747238203008792  0.1262909765302956
  0.1234231348387579  0.3821080622157910  0.3724344752252380
  0.1287363796204129  0.3663003083088641  0.6218913032953837
  0.1221186468893480  0.3665709467076582  0.8668705506838770
  0.1295997207961631  0.6332183098701823  0.1165367202405832
  0.1070159773874545  0.6470046504067862  0.3685393792012622
  0.1243350784187180  0.6133382427288714  0.6344378611190037
  0.1203757908523877  0.6335236332861846  0.8632151128189791
  0.1174911726276621  0.8705318457060763  0.1196393065599717
  0.0886890067492724  0.8883604024162600  0.3812249554904283
  0.1039981992956696  0.8835514907839269  0.6141545830017772
  0.1133015242421000  0.8724429683778123  0.8539420424939785
  0.3723161275714171  0.1323797312776533  0.1267804194816790
  0.3694076643244266  0.1259478559421900  0.3797192259169334
  0.3760726598063519  0.1295367051200257  0.6192522030825384
  0.3699888359440169  0.1185863029883323  0.8634541074942966
  0.3861983198257027  0.3810707501330648  0.1267297520191202
  0.3790752420016842  0.3574208755515990  0.3763528292981852
  0.3708501145356252  0.3649567942425652  0.6400292366661714
  0.3742493533868709  0.3576936154626145  0.8860137589677088
  0.3778166760926664  0.6224059051397532  0.1258165008260107
  0.3650036997205189  0.6323268403056344  0.3666568165093028
  0.3778447311999813  0.6343815130353138  0.6137788619586536
  0.3738907101973649  0.6139252525459399  0.8797461391607335
  0.3833128055108873  0.8718694146649196  0.1230083620087796
  0.3552870455504493  0.8954093977545254  0.3706257049003018
  0.3914824426231747  0.8789194449654391  0.6173260324214652
  0.3669361020202663  0.8799427799855654  0.8736857621379207
  0.6091773475941769  0.1218798342763129  0.1313705714355467
  0.6055338554469426  0.1456417586939222  0.3695177656185412
  0.6328332259236715  0.1243559548961069  0.6380379338880875
  0.6113409572511772  0.1283520451760173  0.8744513392917770
  0.6167218019310187  0.3837884026616529  0.1198125810177536
  0.6275243109408418  0.3863103561487858  0.3734575112780461
  0.6230379824703142  0.3790449235099943  0.6266519298766022
  0.6188824362714610  0.3696596804387405  0.8841447103844999
  0.6210867973557881  0.6242317643413022  0.1188031077424287
  0.6245840361791064  0.6268397617337695  0.3618605935901253
  0.6291421233924216  0.6236163274142804  0.6314836460419899
  0.6184546748339111  0.6358929116187194  0.8684149087290159
  0.6093195833068090  0.8825860680953249  0.1119783639737611
  0.6274298269667256  0.8773299183032653  0.3666855727486457
  0.6173114814571309  0.8866841002558563  0.6291991098324888
  0.6180934675763587  0.8698718913140191  0.8797643699637393
  0.8750145827116587  0.1147085669044491  0.1218763952012706
  0.8746201436367060  0.1269586932616694  0.3709531201282907
  0.8741948105097160  0.1111846816429562  0.6324915516446725
  0.8832153914644514  0.1251834211732342  0.8689974617578231
  0.8587275117355789  0.3700284329697492  0.1215423130078210
  0.8756640808507232  0.3650829666599484  0.3758915576096791
  0.8745159748993533  0.3649884163722881  0.6192743493425886
  0.8757755334339667  0.3834143666365611  0.8741413573686759
  0.8747675409130004  0.6325758203105769  0.1139847541144345
  0.8648195377617637  0.6342801167800485  0.3597489630010818
  0.8663726016697314  0.6330260335586271  0.6128768550343521
  0.8715501797991396  0.6240715313330939  0.8716317570959555
  0.8636948125538140  0.8762460505851081  0.1129353292724735
  0.8522972584223117  0.8907689992112805  0.3583594688787223
  0.8665331324533342  0.8886725831454969  0.6221369194908053
  0.8620262188851250  0.8788233193442316  0.8630086810605553
  0.2531185522620480  0.0122238622279903  0.1269486504834865
  0.1040433321928024  0.0185057500916999  0.9894935195424915
  0.2398628010098614  0.1255603962390155  0.9769704543465741
  0.2197599106233469  0.9797223361345526  0.3770437867579871
  0.1061577385577041  0.9931308034574408  0.2537560654015567
  0.2563471433183382  0.0126503506547780  0.6261514831661675
  0.2251585406676793  0.1190693842855631  0.4936195694541186
  0.2190003691866583  0.9871497094780339  0.8755684670555615
  0.1069309757863474  0.9824853793657947  0.7416208916214272
  0.2340905593096498  0.1193705657538753  0.7558901699017416
  0.1074236224994080  0.2354099255293250  0.0166356980452866
  0.1078621721877794  0.2416461241128721  0.2391563019128883
  0.2284510533006465  0.3693902970770923  0.2562730413042860
  0.2274794818022329  0.2402438092626286  0.6196646250081066
  0.2406034822804538  0.3769080785750218  0.5068177418034155
  0.1102835549726854  0.2415028875020268  0.7619191030920146
  0.2248270517132321  0.3663182703770341  0.7423952699225463
  0.2525057442517045  0.4925786520867977  0.1293683264976870
  0.1124324632687629  0.4807643400253644  0.9814578492448065
  0.2283723170523261  0.6162577810217109  0.9917896193623580
  0.2138892919987036  0.5100548554864183  0.3789161427049081
  0.1102935656920692  0.4954827893887099  0.2578624584821441
  0.2370903371794008  0.5124896439755164  0.6282885306716328
  0.1059262980508222  0.5082427105624868  0.5066717975703787
  0.2410980673502899  0.4648773627187242  0.8775026836310457
  0.2413989741294852  0.6185269543888161  0.7732562947683725
  0.2531543696392221  0.7372760256516098  0.1182477718998838
  0.1037752517327140  0.7427538017950920  0.9838254621349868
  0.2232178909697761  0.8722160228650718  0.0103881389209223
  0.2124535655937021  0.7567924977409120  0.3673685667915307
  0.1055082093230014  0.7342545201940700  0.2261650516285213
  0.2278429189288758  0.8708980008126666  0.2289482898352857
  0.2340325283846506  0.7308241105674975  0.6162833080885329
  0.1103033561988084  0.7466297482999048  0.4910228214802049
  0.2308604221130530  0.7689039447882213  0.8667816596707744
  0.2303980958625411  0.8681649926002670  0.7219242372392528
  0.5006648447759779  0.9914069410016567  0.3688865309348178