H320 Pb64 C64 I32 Br160 N128            
   1.00000000000000     
    23.7227102061737369    0.0000000000000000    0.0000001286816515
     0.0000000000000000   24.3301829668360554    0.0000000000000000
    -0.0000030968219386    0.0000000000000000   24.5420679597400024
  H               Pb              C               I               Br              N             
   320    64    64    32   160   128
Direct
  0.1881176078220881  0.1276722911460923  0.1320348012904999
  0.1375514049814618  0.1307834244384171  0.0539659691147425
  0.0709207936081851  0.1287339325391691  0.0851708441560479
  0.0777474409731168  0.1234070891645649  0.1922635137378959
  0.1473818551921448  0.1242149985147096  0.2167685027200795
  0.1569865680046767  0.0711616331063147  0.3950059195241032
  0.0889956950080883  0.0787048798844914  0.3279266825744017
  0.0617988699942527  0.1410528373995666  0.3543410211701911
  0.1094912224430699  0.1769777342633626  0.4385070031974687
  0.1651133803271998  0.1365189756408428  0.4636577801222872
  0.1682348651669203  0.1104247863220932  0.6169090310940675
  0.0938824304737106  0.0810447782841599  0.5627796489223599
  0.0445976210191122  0.0854681543841062  0.6152141549739275
  0.0805132036740012  0.1190384907918491  0.7049894726866263
  0.1545498489804377  0.1270247257763963  0.7097366014079797
  0.1615209065283415  0.1664220897350697  0.8876741483867053
  0.0969901541175504  0.1768140896704894  0.8173409372187160
  0.0547435014361837  0.1215298687855912  0.8394864531680881
  0.0860727597146394  0.0742471646612319  0.9238070550631620
  0.1497361363800219  0.0988074446464183  0.9532558984883049
  0.1592897978552186  0.4189851107185345  0.1220040428272109
  0.1604458749105844  0.3490010675625703  0.0586468441512087
  0.1015557339714070  0.3148151341075083  0.0881494055935368
  0.0591980241159097  0.3605303252193807  0.1693028407755931
  0.0932716137106920  0.4211508955865420  0.1915007597287385
  0.1789658306458244  0.3728615452776674  0.3782186484965434
  0.1276978063085474  0.3770006463174566  0.2998420522575376
  0.0618416894363122  0.3708648347279039  0.3316591366448777
  0.0688537318008667  0.3600428632548684  0.4377076535346014
  0.1388625230669707  0.3621077333379570  0.4620463713131547
  0.1610065191003002  0.4043559803585762  0.6338195428662592
  0.1035027083755494  0.4338359132979926  0.5619876297963113
  0.0563830691988212  0.3790998359524630  0.5692825563694289
  0.0774092789695976  0.3119070681599058  0.6436261365156186
  0.1383869455793552  0.3245797124413926  0.6823091850555256
  0.1763491952459641  0.3619902335732542  0.8577538467232839
  0.1152495397200952  0.4025629830469606  0.7959515681183088
  0.0629128232329295  0.4150960706466894  0.8444455033688243
  0.0836768759977248  0.3790630834056650  0.9399361345843356
  0.1531111141935391  0.3550678388607022  0.9489846105730285
  0.1612083385492592  0.6322845327676692  0.1581974662975824
  0.1511986604342398  0.6895838487195818  0.0838591163066878
  0.0934588548308932  0.6511003295414818  0.0567613989369290
  0.0637790374925196  0.5694913324549480  0.1109642170275647
  0.1020680196895873  0.5567444352518621  0.1707776109950945
  0.1815675371581512  0.6213795008409126  0.3690712524123776
  0.1257316362952863  0.6428344604124869  0.2957361307463615
  0.0655808306486540  0.6563412116605696  0.3357105127100597
  0.0770061966292845  0.6357373922019577  0.4369487896914263
  0.1471144274556110  0.6218582038370442  0.4568514452205619
  0.1772886507210112  0.6066543346056201  0.6105775592625919
  0.1030895336366991  0.5691166204124247  0.5609882793004128
  0.0534763689760500  0.5820984257784689  0.6117114827813804
  0.0891953321906915  0.6267470979500123  0.6961932289886410
  0.1630503666197480  0.6364762220536840  0.7000617440283698
  0.1660526859913321  0.5826286054035408  0.8764253424239822
  0.1139290668954087  0.5537186329310212  0.8000697789053320
  0.0664827691126145  0.6081761455866616  0.8046796741804383
  0.0801216166610366  0.6734619751543015  0.8830953812299738
  0.1387359607323976  0.6593127733753930  0.9254001882578969
  0.1631018706039646  0.8465553323204070  0.1352111302120408
  0.1160108995749749  0.8209913539865813  0.0562938385646362
  0.0648011919797417  0.8720974690651537  0.0618165108626190
  0.0755253398055559  0.9359005646103115  0.1444247830848956
  0.1328929234640357  0.9201203197165756  0.1872340772321900
  0.1236224938611817  0.9241687834278447  0.3624386675636452
  0.0559421608006152  0.8715620714988707  0.3168455123236765
  0.0588211509105638  0.8176027761861476  0.3636345132170076
  0.1245305506901405  0.8311907101108393  0.4437107702828487
  0.1645597021223589  0.8914290479923571  0.4432505659327620
  0.1587271369596332  0.8990731843609837  0.6425802046485264
  0.1064667992022720  0.9307863668475630  0.5675851004700347
  0.0634239972765117  0.8725372705315144  0.5659312997965873
  0.0836146508629165  0.7996283206025787  0.6354947891874659
  0.1386027131939000  0.8144071964382447  0.6815544536541563
  0.1183972633181604  0.8436601335802334  0.9152768380037175
  0.1210196080490927  0.8178373178872437  0.8219721040725664
  0.1132320896244926  0.8864758283865589  0.8009665098185200
  0.1060699274601297  0.9568259252135575  0.8685779663282878
  0.1086628401685615  0.9378768286194031  0.9379010560025474
  0.3891007917743823  0.1769704155024222  0.1518604638567198
  0.4188397687399683  0.1379849152336681  0.0699390050365704
  0.3710701576586753  0.0834225233757891  0.0737463566664288
  0.3064886699521445  0.0830163982046302  0.1550982589002665
  0.3167612001486562  0.1364612335922206  0.2022739815197227
  0.3806545385502033  0.1724202956821592  0.4096764753076692
  0.4262100512421054  0.1446331884935640  0.3311110755534545
  0.3832256261066003  0.0861581208336294  0.3217874730631035
  0.3096886747561936  0.0712245548674044  0.3952284736258875
  0.3071844201666778  0.1208620401423990  0.4466815301551901
  0.4113897510995275  0.1289336677803470  0.6691047216422762
  0.4010990212450414  0.1908953335039024  0.5978833761038469
  0.3394627342589939  0.1593077961177069  0.5731309148829935
  0.3047110442853620  0.0777046110930669  0.6271268105623201
  0.3459721860976583  0.0593301912159027  0.6835605281425737
  0.4131069753558513  0.1393155731334641  0.9000921392827236
  0.3820219268855017  0.1756452603163771  0.8171613981957068
  0.3244629759833837  0.1306936566828012  0.8130866654655611
  0.3116719475389543  0.0650160465949482  0.8910217046662230
  0.3622619811128789  0.0684415808819659  0.9424620803575626
  0.4091958482256783  0.3499186124656264  0.1045635954685251
  0.3751839669436391  0.4326388812476663  0.0701263872973998
  0.3212724232810359  0.4381744070906845  0.1183528607363744
  0.3163788090494387  0.3608909913822435  0.1872142463972460
  0.3657183946074499  0.3080244179459452  0.1797264774654564
  0.3961030513608078  0.4186007764562527  0.3796681277729337
  0.4222948229829712  0.3634612036087557  0.3066324047666821
  0.3700727131803386  0.3141308572354419  0.3189793615739240
  0.3053299122848102  0.3342730841223309  0.3983117495989640
  0.3217758604442221  0.3944631599286930  0.4357291184657166
  0.3953602045983305  0.4226152858792476  0.6206542772186271
  0.4116769662965449  0.3714803979918572  0.5416710377215861
  0.3636797293992387  0.3202769038407565  0.5587012143256950
  0.3104428979795417  0.3345542117989581  0.6468467528682112
  0.3307286151837024  0.3935547135311923  0.6848047517958620
  0.4035499280106425  0.3437043165527101  0.8929522399340022
  0.3685663319074403  0.3132142940200034  0.8090495427944109
  0.3163841809482736  0.3639870928505511  0.8064127513923698
  0.3125131103219819  0.4296054664126913  0.8858161463493163
  0.3634415214813826  0.4186165144948431  0.9367796107733465
  0.4066844683619422  0.6602112476966119  0.1314858420378717
  0.3624630209782777  0.6825924693300502  0.0493679916771018
  0.3167916551554946  0.6264607034659757  0.0519086321057606
  0.3251782847084634  0.5654166300612880  0.1352081171490732
  0.3787565899016676  0.5843161357258323  0.1814245254306861
  0.4115212215768000  0.6366691408782010  0.3907590218133563
  0.3750533858068444  0.6840379410649597  0.3174941744757395
  0.3171015667084664  0.6396387568490942  0.3090776643406213
  0.3121875267914399  0.5604937351420447  0.3773452608243929
  0.3675820688873762  0.5573356051459817  0.4238572516370891
  0.4320627973766968  0.6153356454221102  0.6208840015739641
  0.3844214328662789  0.6183859008313586  0.5401313083901275
  0.3171591772810944  0.6244619174862043  0.5702270307354580
  0.3199034249108952  0.6264730149161005  0.6766208499476823
  0.3886882282648159  0.6228847262520310  0.7033258486964188
  0.4307419161666746  0.6168072099753916  0.8643179006594851
  0.3760631048878906  0.5408867430644022  0.8626539922285350
  0.3113996579654288  0.5764911056437046  0.8681562373027119
  0.3246034072277070  0.6840684553698216  0.8726702661133138
  0.3960695362647635  0.7036772303186609  0.8716799166582637
  0.4129505235021208  0.8845770979262811  0.0834003328340878
  0.3494678296518025  0.8141176968718713  0.0658932535478817
  0.3060602330883362  0.8306306788905871  0.1214419586760418
  0.3373138379467931  0.9125330444307111  0.1771698583964192
  0.4008506100416306  0.9440475042023775  0.1548986474863354
  0.3953649257009424  0.8160201912672234  0.3744695883968966
  0.4116430977226518  0.8783152508950742  0.3045131967909467
  0.3580580958134009  0.9231107954220962  0.3248987627161949
  0.3031304955620017  0.8933204791070274  0.4087414060974954
  0.3264850211463095  0.8311956474243419  0.4389622024996744
  0.4082986764934377  0.8978569687156767  0.6029557021501899
  0.3799425640203675  0.8146527154156827  0.5651587890021735
  0.3285276662993932  0.8023817845773836  0.6149795454302742
  0.3151452613280040  0.8787326176330806  0.6840492647536055
  0.3632350180758918  0.9330274865015460  0.6801395570061648
  0.4153673186284718  0.9198118818739703  0.8657230597664134
  0.3919363704009997  0.8516060968529487  0.8042423096030373
  0.3322170700946777  0.8297357099841708  0.8419859053953613
  0.3119244877492606  0.8844402435295226  0.9277401750389900
  0.3608871719520360  0.9354658173241990  0.9432647503806572
  0.6387587182349821  0.1001034191993703  0.0694898193927297
  0.5657025924752597  0.0552621482595068  0.1153361836727827
  0.5592811963159948  0.1064989214518041  0.1648466044283491
  0.6291314944072125  0.1848311564119768  0.1586062524241239
  0.6748898569810998  0.1829482960903497  0.1029087716305723
  0.6832518250232006  0.1137431997039137  0.3656618531706471
  0.6214849200357694  0.1470018937968287  0.3011380847797794
  0.5653117167333662  0.1540687985841059  0.3471385718994772
  0.5850835666864111  0.1202788730460071  0.4432252395219793
  0.6562844085577580  0.1043269664061830  0.4559311575879044
  0.6554674554081570  0.1239268794289436  0.5858531632263518
  0.5903275600522097  0.0521121923716033  0.5852628377766855
  0.5531607109508305  0.0783634692322229  0.6418295625862220
  0.5918079822585158  0.1621433422743558  0.6841458582980255
  0.6509215964797815  0.1925100718410472  0.6512144239537875
  0.6595815848714663  0.1578950458578553  0.8521132033935460
  0.6123209330009718  0.0844597028340136  0.8109788911593371
  0.5623563166140851  0.0792299593316979  0.8630933037008861
  0.5723114091430017  0.1460838163618303  0.9404598577824628
  0.6283514214788396  0.1926506104937226  0.9359582827516645
  0.6663578310794537  0.3739968036629402  0.0790396030637837
  0.5994816010690033  0.4393025715464539  0.0562207924427277
  0.5598925063248669  0.4306301602793694  0.1156039731162678
  0.5989583097878379  0.3575488892844174  0.1812806908649221
  0.6609317985256175  0.3241416920914512  0.1581528551858132
  0.6824807515530281  0.3680494333223910  0.3680419631648927
  0.6350222057226476  0.2867708714224428  0.3735605065228037
  0.5675585904373754  0.3172090738454634  0.3734290657412414
  0.5696469221407358  0.4242187348490403  0.3699412776551521
  0.6386997575035233  0.4513768447547838  0.3678807938797259
  0.6740148073558788  0.3748828429643948  0.6037023838239525
  0.6064939060719561  0.3427279004676094  0.5445489365658170
  0.5553323369939960  0.3338214967222279  0.5951316675294863
  0.5842165065772296  0.3662381896997987  0.6900584785253978
  0.6567526882317513  0.3823323532972823  0.6960356378621894
  0.6562294308173404  0.3944367259140614  0.8972517923874759
  0.6276799761264901  0.4353865863117496  0.8159070045610796
  0.5736672556308589  0.3875419873385464  0.8045883333735542
  0.5628292201982894  0.3137578313907173  0.8748596416155423
  0.6085030814101533  0.3167290314941059  0.9309818232412470
  0.6186542155821954  0.6724676108781464  0.0719862277863558
  0.5412526034528129  0.6141425198560594  0.0697480500958718
  0.5653074679231065  0.5738343000436131  0.1245563007154674
  0.6575188734144906  0.6022100228218725  0.1649763130490025
  0.6903579788640289  0.6604196415535772  0.1350021743279720
  0.6325850786009296  0.6725488401220283  0.3492491089231505
  0.5562560694222453  0.6349434195994507  0.3028332300037564
  0.5454987225590330  0.5826985418533559  0.3515140747146832
  0.6141057283508048  0.5810206990689922  0.4299877233222462
  0.6640504315479927  0.6335486779554501  0.4309123626344093
  0.6523730278818831  0.5769298429752713  0.6215799345374902
  0.5871450576111260  0.5834372663599854  0.5518283455670282
  0.5561394771681811  0.6441640349956463  0.5790199463771591
  0.5997153143241688  0.6810617532650153  0.6629753627681053
  0.6558353889349016  0.6426517708543097  0.6909041214094273
  0.6581598152280655  0.5907098792903236  0.8808769622144060
  0.6053457399032941  0.5693758068070053  0.8030446597266659
  0.5556431649495410  0.6208003584438502  0.8152334358971478
  0.5725812115745559  0.6800098766024242  0.8973572878599532
  0.6321309825430919  0.6627267884748539  0.9374614198915682
  0.6847489825058223  0.8725872247937915  0.1260934967095673
  0.6281585382169371  0.8927317233935846  0.0532155306272040
  0.5678902622165392  0.9049095997807688  0.0934187717831038
  0.5807676684602638  0.8875314414314678  0.1946240173754004
  0.6510817863336648  0.8745248929774760  0.2146397277608364
  0.6577317394375491  0.8434570565534145  0.3915216115507437
  0.6072184713340407  0.8066676975801197  0.3176690195405284
  0.5588154748176026  0.8607311123449712  0.3164664306882111
  0.5721879886161998  0.9346013982942742  0.3871309907050110
  0.6285397689421849  0.9248585656680737  0.4323688981443882
  0.6214085980472230  0.9287608206257262  0.6023240112678321
  0.5554433082256277  0.8702039938741067  0.5617259206789970
  0.5606272207875895  0.8206203540219105  0.6126107555585472
  0.6260422069393615  0.8436175547153638  0.6910903928860679
  0.6637794362810370  0.9057480163970901  0.6840106522658662
  0.6613303364897087  0.8786371228213345  0.8319394482689078
  0.6014376331537407  0.9537503258872451  0.8300749050261303
  0.5594262859788480  0.9295835157493992  0.8841851578989298
  0.5881479635389290  0.8386379107585706  0.9233740217796468
  0.6473173887543462  0.8067320987817687  0.8926556617225079
  0.8993291860390620  0.1716938738225920  0.1163625556777238
  0.8170402653587781  0.1538261113503472  0.0684756803355983
  0.7967849552977776  0.0995297217401492  0.1118048962899594
  0.8623282184994128  0.0788583525627057  0.1894142768403459
  0.9228058388579375  0.1194261513885816  0.1938522953459174
  0.9134539163567157  0.1605086500078114  0.3891161165614689
  0.8594741717982350  0.1732997470339800  0.3107412506406683
  0.8139195361504201  0.1186957123546399  0.3252820294488284
  0.8343303707067972  0.0670406079808590  0.4120250000149341
  0.8923708149305973  0.0923335387881415  0.4507479005581980
  0.9066221508278383  0.1083462711940745  0.6670837338973854
  0.8818625974946077  0.0519064250890367  0.5948770830650997
  0.8250832416198435  0.0940806588134936  0.5746299577676139
  0.8093872060962858  0.1792609917094333  0.6312448001218495
  0.8559675211305801  0.1886313675532608  0.6855702815002276
  0.9077576813100078  0.1140151972305867  0.8636360688497714
  0.8593762878499366  0.1910130610248817  0.8290915197794300
  0.8079874427469187  0.1891461413432334  0.8797568092475079
  0.8189078666331342  0.1157392655838956  0.9506357892175930
  0.8760739960238090  0.0704990103032278  0.9424922417532708
  0.9201234741213233  0.4000697124475953  0.1472551866980270
  0.8829326247865162  0.4459644675457038  0.0736927773655120
  0.8262184840631104  0.4000249025740580  0.0652086443214390
  0.8219748022613563  0.3225355539128916  0.1347429131920711
  0.8756511349709464  0.3222921903906221  0.1833824810096199
  0.9082160140470502  0.3859558043098934  0.4088324082969684
  0.8798872848140257  0.4387480792796178  0.3358412232605653
  0.8237634772826777  0.3942630499606439  0.3178316454428713
  0.8122947863078791  0.3109665932947726  0.3791157427487405
  0.8605204818582306  0.3054229122534235  0.4325853916817908
  0.9123857584478837  0.3608602158675601  0.5840973587776448
  0.8584793269788227  0.4357765101303450  0.5550598947064653
  0.8101281785375488  0.4301078496916535  0.6084254717857480
  0.8281351441885809  0.3523186245445827  0.6751339788952579
  0.8887423951592986  0.3122850242200794  0.6613824505964940
  0.9345284589460633  0.3680053115649580  0.8674081437730500
  0.8785036735753309  0.3881421631839396  0.7945152880824391
  0.8184864916232398  0.4033172063574996  0.8341621951682522
  0.8325164456253270  0.3883033482872749  0.9373485101644773
  0.9030396925736091  0.3725394494780602  0.9552267535954277
  0.9029662272934031  0.5842396621127329  0.0967254976540335
  0.8323127920142025  0.6169909869247063  0.0402591400656725
  0.8111309609739881  0.6687765065790398  0.0868635669837213
  0.8678809955226500  0.6753938394194208  0.1724156976369168
  0.9210264618871344  0.6262573407372315  0.1806282803396500
  0.9254117918517324  0.6271351177633788  0.3861706663190557
  0.9045386719427443  0.6050720502058330  0.2965496407615936
  0.8327980709818621  0.6233503731595673  0.3019703493412466
  0.8069418221185282  0.6698309497903037  0.3905353929584138
  0.8586139260765847  0.6700798449311243  0.4414241309268576
  0.8672028483588781  0.5768603805315871  0.6609327475842346
  0.9222058487327098  0.5863862712580212  0.5838949793569187
  0.8857818582480033  0.6463212716557221  0.5614729433804299
  0.8067549675466070  0.6776344340635289  0.6210635567773507
  0.7942873174920295  0.6385531726278543  0.6798433996287794
  0.8737739723843062  0.6817998437585011  0.8808642121416075
  0.9401586951952178  0.6276013648407890  0.8395580304612504
  0.8931964446642068  0.5728397071697383  0.8267833292843833
  0.7942940993477867  0.5870442077640889  0.8640027291589617
  0.7815597805052671  0.6521562029282548  0.8922525166726247
  0.9103286313429829  0.8633158088328688  0.1583647307309548
  0.8888255781429431  0.8136814819111290  0.0815600825880190
  0.8318369112660994  0.8571235844911335  0.0627840864315128
  0.8146298617874299  0.9372125504642613  0.1251352866245089
  0.8585787078607269  0.9423130001391962  0.1818958243992225
  0.9364508450407851  0.8652670549523906  0.3745670779084330
  0.8894963912105740  0.8673764818430684  0.2939395561362420
  0.8215441208077082  0.8692149975552868  0.3228862024197322
  0.8233321125236983  0.8703930512154794  0.4297795650458981
  0.8922554699306380  0.8671864821621942  0.4569525758756645
  0.9071239091570228  0.9169723820791139  0.6098002969614361
  0.8290405605814437  0.9037928286525631  0.5557489654116200
  0.8048618356153514  0.8460104772415712  0.5936620349238639
  0.8665485931009734  0.8181360141512144  0.6719881634655619
  0.9257884559301731  0.8593209589862127  0.6839347696295479
  0.9280661960852447  0.8851878535455907  0.8953293464071227
  0.9103881857925364  0.8629344864653520  0.8042583256123056
  0.8385319876290211  0.8817922140174798  0.8083308585278853
  0.8094505030281388  0.9279682361642716  0.8952002972263392
  0.8594207003895794  0.9283907141446477  0.9476547966139528
  0.2343415392950385  0.9972154716864409  0.0106359439457020
  0.2366030165636279  0.0030764425881002  0.2556621307363601
  0.2408491078857131  0.9918177203787278  0.5212442389722448
  0.2330322443984238  0.9937750655480881  0.7639737245663731
  0.2401401120726500  0.2445078477297092  0.0177957645099544
  0.2361244508686731  0.2461734151222168  0.2621101975318385
  0.2343747621505336  0.2506658060298470  0.5112497238463969
  0.2389266748863735  0.2444691633851465  0.7594882720455786
  0.2335764508276087  0.4947173735946691  0.9989708991002939
  0.2357101856262286  0.5050549664906402  0.2549393858268256
  0.2374056349999634  0.4958512426560140  0.5021421965447143
  0.2393837555544868  0.4952923842772743  0.7443282599935963
  0.2374728798397195  0.7559229806194407  0.9905019784819480
  0.2299308132458882  0.7524076926808916  0.2703761630421050
  0.2341738651833375  0.7451847565713833  0.5085519661559539
  0.2456225000901047  0.7467885863853037  0.7490744403739567
  0.4907193281596052  0.0066459902236067  0.9991892387444911
  0.4918107397896902  0.9991470656529815  0.2536295795352242
  0.4800011233011522  0.9984001999721430  0.4964646812209020
  0.4874997274344192  0.9955222977656026  0.7451590468068360
  0.4872443745547206  0.2540211840636024  0.0041725352064037
  0.4917522505780412  0.2438863381344143  0.2431740511792191
  0.4886285631552281  0.2384638700400196  0.4916637389566091
  0.4896121330598854  0.2465248650969746  0.7377869348045828
  0.4799456455541653  0.5079991047408589  0.9828985442690379
  0.4927104079559374  0.5048240295347827  0.2370182214352173
  0.4872522756525750  0.4943842839562245  0.4916160662294426
  0.4838420421916685  0.4958732151741909  0.7360134276037659
  0.4877839079638417  0.7499508607619798  0.9962642402488342
  0.4799628599171813  0.7465886895406245  0.2351200914942276
  0.4808526735185717  0.7398213820289583  0.4808067396751962
  0.4872824309859404  0.7498906877018320  0.7478557946371331
  0.7348513829861711  0.0052803967742815  0.0005029807801798
  0.7331505532592913  0.0018653120419631  0.2630312542105623
  0.7357184354522182  0.9961637830718907  0.5031976904819376
  0.7422394095203371  0.0097580087447410  0.7590590413737676
  0.7393404144687798  0.2614889108366297  0.9999186189075416
  0.7409628388811772  0.2513069107514025  0.2540534878856230
  0.7352606667851640  0.2434475827240366  0.5037187196569175
  0.7331410278249387  0.2521083366700150  0.7544997744320817
  0.7353339339766711  0.5109171540328383  0.0046929309825052
  0.7307706181683027  0.5014126504507320  0.2465821225874865
  0.7371800241013380  0.4994466386390838  0.4901965019714505
  0.7392392922164778  0.5034339414277202  0.7369723603121235
  0.7348431310687682  0.7573629046628476  0.0020003065122931
  0.7415806223234975  0.7470745811728167  0.2512798088652414
  0.7379987983432629  0.7541035958271708  0.4970171732294494
  0.7352726660366140  0.7577103294243186  0.7587785436231016
  0.9858800896485665  0.0005668619539852  0.0148312406455045
  0.9861104066641501  0.9971723448277816  0.2577343313649151
  0.9872426517686465  0.9949730674583136  0.4970384281545563
  0.9838403998751385  0.9993164216827934  0.7509025452717272
  0.9967306426351583  0.2456382189585720  0.9951503891934801
  0.9944564422704714  0.2492257305851417  0.2545674200452135
  0.9861123683105137  0.2415889943984372  0.5128689124047301
  0.9887555189435688  0.2514158682247196  0.7565012778546473
  0.9961329893913671  0.5016014777291432  0.9935978640801937
  0.9858446244482409  0.4954687880409440  0.2473747014630699
  0.9838617157703715  0.4976732759361366  0.4877470878435201
  0.9874301386526197  0.4920943741961491  0.7395534091725566
  0.9885191952901199  0.7473344213089778  0.0000727910516989
  0.9861419386958776  0.7465074013739096  0.2456680240562039
  0.9885872679956514  0.7450029961131751  0.5052611369507863
  0.9962522713408622  0.7423255523966640  0.7498480715345118
  0.1419983819771482  0.1266633100918668  0.1350742073116480
  0.1282449995588557  0.1066263146519849  0.3953929529791025
  0.1257199340546442  0.1080769278839118  0.6344074733094439
  0.1250235664977674  0.1385533872687485  0.8853658414625862
  0.1274578516404756  0.3862350058624691  0.1245781218167414
  0.1328649365481704  0.3701678677747811  0.3810346991235772
  0.1231829887800949  0.3806143095039814  0.6231542597830380
  0.1347283749426655  0.3759441075874090  0.8716176646412109
  0.1281167139155739  0.6235619896870752  0.1280826007488735
  0.1371035537834807  0.6314686402055738  0.3761292881705298
  0.1346920957169205  0.6068790842280665  0.6280534268463333
  0.1288805906517224  0.6062017134688458  0.8632779519004218
  0.1256048078302451  0.8698166678132532  0.1225024896999094
  0.1109762008632741  0.8840970383001352  0.3791624913047214
  0.1244307213385722  0.8738019563285695  0.6257997022816109
  0.1149281878244534  0.8749300087121392  0.8831084582779583
  0.3689773920342641  0.1390882278171723  0.1371938293403507
  0.3670655715695926  0.1346263756940073  0.3889888276606096
  0.3752659640220580  0.1249041752661032  0.6412097967762723
  0.3750856349722744  0.1225909225126260  0.8806657924399610
  0.3729594469407705  0.3698893306786521  0.1242491802103479
  0.3724898085949743  0.3806589178028294  0.3714380993712389
  0.3716099954462264  0.3843573928851364  0.6136998537511479
  0.3677839626976004  0.3651209942219386  0.8739704667483204
  0.3719958245366565  0.6343948233191595  0.1164104557273863
  0.3723619038325335  0.6220299197196082  0.3717554507679157
  0.3860057312665572  0.6192687104627744  0.6218154741858503
  0.3848940840644632  0.6223785242841722  0.8666258462610174
  0.3760009677272176  0.8795190743115682  0.1099362251430124
  0.3688681144585262  0.8530934643876106  0.3714826053577578
  0.3735602775013966  0.8747336925485947  0.6217435619800674
  0.3777968909775520  0.8944435281698482  0.8731674899488941
  0.6210255158921002  0.1184029431475470  0.1066448004477231
  0.6395832040781345  0.1226561955964337  0.3775883947496488
  0.6218542162153097  0.1227040175440034  0.6167343100198365
  0.6224472349050434  0.1399393338415374  0.8721073916282026
  0.6312287188201031  0.3818378974490362  0.1071949436073049
  0.6362825068936252  0.3690618446783088  0.3693794364086053
  0.6318526247212252  0.3653488629830248  0.6196259040081791
  0.6209613724863658  0.3766380459233379  0.8742546545140651
  0.6161903718793180  0.6382743995770014  0.1012327301347699
  0.6111220427927426  0.6362196748477998  0.3659279273188385
  0.6223042767660600  0.6113687316228787  0.6213933582199096
  0.6204013683004941  0.6149733488450700  0.8711949756798987
  0.6400480170596903  0.8815269498688031  0.1334914683201497
  0.6206921013740806  0.8651618582033808  0.3755383412251685
  0.6100380174323839  0.8899791360897634  0.6225187952277775
  0.6259494317709641  0.8805799691661457  0.8609346222037180
  0.8711386845648476  0.1387107619878332  0.1303583393607750
  0.8775111948306042  0.1330436891985979  0.3810512775244242
  0.8707416482492283  0.1196808133328041  0.6410283749850022
  0.8698654179091839  0.1294990143128120  0.8842917269633263
  0.8815256913829008  0.3842110440405559  0.1282925829487766
  0.8720059599692757  0.3725708524133363  0.3842775025621294
  0.8747583343268310  0.3729167652960984  0.6073562437548070
  0.8903040596849362  0.3789502840973993  0.8748182698702091
  0.8773072657500697  0.6195378604161585  0.1098151253871950
  0.8827645953374954  0.6343827011735860  0.3702889772194980
  0.8587976504262931  0.6109527907120940  0.6325907661080502
  0.8615891858052840  0.6406593170843856  0.8666031899450831
  0.8750922915569281  0.8768302741472667  0.1325314590057829
  0.8902212570488234  0.8666544927097833  0.3754083575687126
  0.8785520696968006  0.8824616737850032  0.6185639253229682
  0.8860967997847199  0.8923165168461267  0.8777205319733186
  0.2432877323183689  0.9829131814296915  0.3870269576834991
  0.2296312216855649  0.3764683110806019  0.2505553413194768
  0.2377761936776767  0.6232909613059254  0.9729252806250037
  0.1123686947480111  0.7500677242116427  0.2165943874074849
  0.2405544822175173  0.8775334391781056  0.2312418367586916
  0.3628259214811745  0.2348370901049393  0.9798079407430582
  0.4641756037593293  0.3799406095558494  0.9971838311203293
  0.5129634869449250  0.3740320043942600  0.2485480462466333
  0.4947776517940114  0.3667961124031011  0.4666463669840882
  0.4777848294318327  0.2455922739458045  0.8642098517904228
  0.3641490367635572  0.4889882439798696  0.2573457608135875
  0.4969720865516564  0.8800027392158317  0.9802583347528997
  0.3507517787306927  0.7498637574678404  0.2203448769189686
  0.4952829648472271  0.7322384328948328  0.6146469124528170
  0.4689148910390100  0.8681069522779230  0.4923966514100451
  0.7305180208584492  0.0133741945697177  0.1318258510409451
  0.7345088692125765  0.9900953896243747  0.6315583726524964
  0.7216287768353891  0.3702189054439457  0.4941256986691958
  0.6093463326546641  0.4940623755673519  0.9689036173572010
  0.7387590012286628  0.6271278069390415  0.5128716849968540
  0.7386089258412958  0.4896100639793602  0.8637586671354377
  0.6107029055829900  0.7297742966815657  0.2429759118460593
  0.7351422480134822  0.7693070015823988  0.6239787984128190
  0.6106317417546839  0.7557539303841850  0.4805219424374663
  0.9880062384890476  0.0227404862937342  0.8856592652413467
  0.0074972021178392  0.2572307503102271  0.1270929565896487
  0.8661100953935601  0.2486503738557142  0.0185264561600536
  0.0060354783201164  0.2385678052663070  0.3848003294563718
  0.8646377573215940  0.5252833711278625  0.9828942226596580
  0.8596644238617146  0.4981377860614725  0.2243987836470365
  0.8625406014686778  0.7567245789373652  0.9696412073604492
  0.8649762436331369  0.7411665664043171  0.7542135949139330
  0.2431213340675627  0.0116169651626333  0.1347216410052296
  0.1119363311329642  0.9940068344150127  0.0181817224239901
  0.2299716096023908  0.1201385755858456  0.0080063714182521
  0.1112492707324788  0.9951071070254860  0.2735281709175933
  0.2322192618343770  0.1246445074290260  0.2728992253428667