H320 Pb64 C64 I112 Br80 N128            
   1.00000000000000     
    24.3604457818369902    0.0000000000000000    0.0000000629342231
     0.0000000000000000   24.8925775998846710    0.0000000000000000
    -0.0000032518441021    0.0000000000000000   25.0967787541053617
  H               Pb              C               I               Br              N             
   320    64    64   112    80   128
Direct
  0.1591124491190747  0.1265827427368908  0.1461637497332149
  0.1267614749430366  0.1743762257219744  0.0733775589927000
  0.0725733423313835  0.1298362541006660  0.0606575156676207
  0.0640162541169746  0.0514880178931080  0.1260741736392345
  0.1143921468996651  0.0492673031468853  0.1755102642995559
  0.1596529754571988  0.1077644661490282  0.4030453364780452
  0.1324148433444327  0.0596376867898184  0.3294537984816098
  0.0765033818927147  0.1023859857036933  0.3145659596740822
  0.0635827838269069  0.1803187030840279  0.3792885702334446
  0.1121833772762893  0.1850418114860249  0.4298998642856748
  0.1708662848986710  0.1254040267747027  0.6298356486254543
  0.1299467444814426  0.1296337193719300  0.5476478106924537
  0.0624782589173347  0.1329898288715008  0.5728187975178133
  0.0575961337536473  0.1309447105278168  0.6763819520523133
  0.1226445926485373  0.1263558081408851  0.7069909487603854
  0.1600525904027190  0.1419244774479537  0.8916966452052655
  0.1131141275970134  0.1912414535659639  0.8254807940167119
  0.0605612531447713  0.1434691074225558  0.8206019657018832
  0.0678159964895834  0.0623655503376590  0.8796668360153204
  0.1241655727688186  0.0604405676354688  0.9224494107556311
  0.1551024604863868  0.4012844162834915  0.1332245743888817
  0.1017158810181752  0.4267267182180947  0.0598483223891205
  0.0561941020674038  0.3730134146645303  0.0670198706445156
  0.0776981535853288  0.3076688516205216  0.1416943376765621
  0.1348893237503904  0.3249267836527209  0.1813178275241117
  0.1583994395922969  0.3300974666282502  0.3777330674449198
  0.1017635373466588  0.3139749679732438  0.3050055963588367
  0.0582890456480839  0.3682897457580324  0.3190018263596015
  0.0805736429524546  0.4206342232231932  0.4021261788663743
  0.1402816476242038  0.4000623510490030  0.4364831896880157
  0.1310655222465940  0.4242728234167871  0.6554952594054479
  0.1812836940552418  0.3944432779981407  0.5839801273491908
  0.1382835477065884  0.3388679598893276  0.5712739422479345
  0.0583643573671633  0.3283984003533981  0.6361464678215114
  0.0531883223160497  0.3783430998685036  0.6849260514566866
  0.1591730471917342  0.3924399910770417  0.9019555460716048
  0.1340765747266388  0.4335370124067988  0.8227267126731966
  0.0758529959079381  0.3928544532112986  0.8134628266484935
  0.0603506507753748  0.3218118051234344  0.8843762831643662
  0.1083171141035055  0.3206921885920178  0.9360556109245929
  0.1786585185122946  0.6181972109384021  0.1249578080917995
  0.1356142182936802  0.6143835634705231  0.0441709418403978
  0.0688061173688807  0.6150952282280880  0.0710587230232516
  0.0665692639834784  0.6197032838943701  0.1748047803634301
  0.1323885561806292  0.6206084206136906  0.2037968140252820
  0.1735702641632445  0.6193914270334328  0.3680572593835754
  0.1286665775984485  0.7000532420363182  0.3696183088391826
  0.0627843115983914  0.6718858132866823  0.3760145325753840
  0.0631253877044125  0.5680658005471162  0.3818371284573611
  0.1294049399112325  0.5392367078991460  0.3767685140899206
  0.1523403255098549  0.5761825790955947  0.6133542113228827
  0.0846614240896425  0.5930087437489814  0.5506551453859644
  0.0581963214881534  0.6490101289511340  0.5861751778174106
  0.1075743697280086  0.6735141815258074  0.6696669904457937
  0.1622543843019507  0.6317155648425443  0.6882921965299963
  0.1530392949257709  0.6392336815299071  0.8588961309311428
  0.1130298185557636  0.5632301226454619  0.8193519219400791
  0.0610026704566692  0.5584855054689040  0.8673454975058592
  0.0618211496959397  0.6292092931020046  0.9386524959809509
  0.1147209138954862  0.6770334052063315  0.9350651328167118
  0.1296981628990385  0.9170900414060503  0.1431084889804921
  0.1735147488473663  0.8786087644941293  0.0705711660682245
  0.1268399674265360  0.8253166285454150  0.0653524303680296
  0.0510334910412738  0.8243473460584257  0.1339656803905417
  0.0510146726640087  0.8775962176573838  0.1796816834518109
  0.1529371253027642  0.8984415561566981  0.3462314598745420
  0.1146485015350445  0.8178511200731921  0.3143556290080268
  0.0671391644464243  0.8139313050332507  0.3664041746960194
  0.0694649048404095  0.8874913816621286  0.4337964787126143
  0.1165348515789793  0.9394646012508406  0.4233685730955327
  0.1438948793387284  0.9004023999791303  0.6039203541768168
  0.1106166281814602  0.8177394256403331  0.5724472543027571
  0.0674354825240072  0.8082861615868516  0.6270307983730989
  0.0650520549741624  0.8844762969958699  0.6947432724486807
  0.1095396399199321  0.9381582571357683  0.6812867071131617
  0.1549925264188643  0.8866511054683993  0.9041377287512431
  0.1186670377991467  0.9369304555571578  0.8337742134816378
  0.0664540040408002  0.8903059744721569  0.8204877654843590
  0.0639048763453482  0.8086291727897289  0.8799693122052391
  0.1144070015235608  0.8054713620577927  0.9292055354233463
  0.4084472846934642  0.0837386781565589  0.1158544401723132
  0.3852052547184306  0.1577489833303340  0.0640618000280192
  0.3252729404530769  0.1717267961684355  0.1011085684192932
  0.3044796412436940  0.1082617403089221  0.1762107469988621
  0.3524201004193885  0.0572645793372639  0.1872671731228528
  0.3896121771503127  0.1647682871810073  0.3527427381365582
  0.3173669061304952  0.1383527163310794  0.2989017535598909
  0.2963192321142211  0.0866256637245094  0.3424295861758149
  0.3544152260521635  0.0738207727804709  0.4239426518639626
  0.4090616116462542  0.1187613277486930  0.4322396598756706
  0.4293455676922490  0.1280799239812620  0.6226222239097250
  0.3899618990504393  0.1341825121581147  0.5402600897552960
  0.3225546877292713  0.1429485722562077  0.5646094920691287
  0.3167465734818790  0.1452550789448783  0.6681808262089992
  0.3807070669300842  0.1368541782316021  0.6995943270466892
  0.3986432329668119  0.1193469653228414  0.8239969237665759
  0.3290922645557842  0.0562020335167404  0.8288749703862931
  0.3009221693031209  0.0838028872885473  0.8878195683884080
  0.3495197134274780  0.1645260424200834  0.9239483817512066
  0.4068121680371020  0.1870617508516593  0.8872911096940057
  0.4291685265363862  0.3838316674328282  0.1206719154964987
  0.3810605755525905  0.3838200851479397  0.0419091447784839
  0.3163207565037119  0.3828823780404415  0.0720848368075622
  0.3198066911874607  0.3794817775735985  0.1760531377400494
  0.3871266419907152  0.3813994334343114  0.2018420222538411
  0.4054144199826900  0.3849647791213576  0.3460617546637818
  0.3629181101968674  0.3081766054584476  0.3112489809559186
  0.3094570740274070  0.3095368695492227  0.3573611704744741
  0.3120043185013361  0.3839530881645644  0.4247332579950316
  0.3667109748689534  0.4289279030007690  0.4204476154225390
  0.4079729244141467  0.4136343852629917  0.6244122501487718
  0.3525034974954371  0.4222399743084823  0.5493151512208966
  0.3120775225744863  0.3663225996151935  0.5657871452020863
  0.3372869600065977  0.3181423668814012  0.6495490105185302
  0.3939609387466919  0.3448620226130494  0.6850984076383915
  0.4078720678778936  0.3996961144108176  0.8740258582805175
  0.3660365915144878  0.4279662995660727  0.7949284849472305
  0.3123002344190461  0.3818708619109376  0.7996582389222535
  0.3154652363534831  0.3196729404855752  0.8792174070569756
  0.3700520534582293  0.3294523688203633  0.9235320666317739
  0.4066081117512823  0.6460245134262015  0.1415705432726259
  0.3686881741823883  0.6674819478727237  0.0590284663166095
  0.3156947693032799  0.6205859325697962  0.0643143066253654
  0.3158128985518847  0.5643649842178270  0.1489776089679889
  0.3672435119406345  0.5809697072437784  0.1954539894222316
  0.4029164734143412  0.5941293673233430  0.3572715166249259
  0.3798782170382921  0.6712246280365436  0.3105731731048947
  0.3276816149433053  0.6896656468979353  0.3557552959242278
  0.3144353761601100  0.6284090491844725  0.4338069935485657
  0.3563213134501253  0.5714557575837219  0.4361183932160789
  0.3946056768759374  0.5828451998712701  0.6361331514303132
  0.4158976419138598  0.6275586218834418  0.5565543783969878
  0.3616131170941691  0.6728941021376658  0.5628845495059709
  0.3043751083096080  0.6649586441852219  0.6458204928084399
  0.3214727335953285  0.6120254599687841  0.6891118098885018
  0.4004814775568429  0.6517795004590068  0.8609050712067663
  0.3798488373301923  0.5766020253096452  0.8110765929491441
  0.3225324035369336  0.5590335048752524  0.8504899602200369
  0.3022026821388380  0.6219345846175527  0.9271316817746154
  0.3478717742168361  0.6756838549267891  0.9348097784924546
  0.4095075457246073  0.9073424801353693  0.1246845709162281
  0.3959895121658037  0.8381663471751910  0.0648978602445245
  0.3389416838412010  0.8116476722531708  0.1001707289310634
  0.3133887651076318  0.8608375514609371  0.1837713642266806
  0.3529138929487186  0.9176050265969615  0.1991459563214548
  0.3653816290663014  0.9239322341140526  0.4023601387891670
  0.4137106658641612  0.8918803902346335  0.3304038101369203
  0.3678638703195795  0.8388770287366428  0.3169558904361147
  0.2871268754267139  0.8328406446362983  0.3813449987391901
  0.2852061208648142  0.8816313872692190  0.4315863672106245
  0.4196307152565344  0.8649027144081021  0.6251359980103580
  0.3715632783473838  0.8695597071462577  0.5476724396549177
  0.3063354359759705  0.8673146287903246  0.5775973106857090
  0.3106655774993516  0.8609014005262299  0.6818552375965281
  0.3779902235109132  0.8600948202696242  0.7069514090491972
  0.4072788053580242  0.8553792739280677  0.8488838211358840
  0.3625384775984898  0.9296295175986509  0.8119221688900894
  0.3109304228740311  0.9304909647875965  0.8603265129400489
  0.3184031992237014  0.8594674674669152  0.9320298126881210
  0.3733842487360209  0.8144590297628279  0.9254799566467536
  0.6636603489569155  0.1589423874506120  0.1366883925276567
  0.6141910439059793  0.1778869387654187  0.0588411577489631
  0.5657846710859388  0.1274947916538774  0.0705154547304334
  0.5794160269904791  0.0727167698658141  0.1542107724797277
  0.6359024122428071  0.0924088836702130  0.1942147906513314
  0.6487860787486335  0.1396551570798353  0.4008117494279981
  0.6313330157268979  0.1911932565254471  0.3258223844327234
  0.5755981074814097  0.1503619172433849  0.3050157056741813
  0.5533656671854847  0.0727305389611858  0.3645042462525733
  0.5952921435384474  0.0644180140196066  0.4204287570655579
  0.6516396010045373  0.1538523609426767  0.6138180505482529
  0.6194108865206212  0.0844230987843241  0.5612845992101663
  0.5643424572967196  0.0688111378110903  0.6045742093661766
  0.5562723739026048  0.1281868618947860  0.6856067919812163
  0.6067339058032164  0.1773990965037950  0.6932320436129251
  0.6549403428115118  0.1593479961218647  0.8578121328468046
  0.6322550447753963  0.0869670454328162  0.8038809044345049
  0.5754033646563513  0.0683768975756128  0.8437832160661813
  0.5586380780374690  0.1247450903016108  0.9240256705109654
  0.6037278250861169  0.1786817826627706  0.9343761606313902
  0.6542656058835243  0.4210272490368797  0.1199399822555869
  0.6552550478781574  0.3442977627311273  0.0675777694303827
  0.5945433340223329  0.3179994961906861  0.0972593755226505
  0.5517996194891417  0.3743914197070929  0.1678289603500325
  0.5859672760712178  0.4354846716006553  0.1821123258116163
  0.6729575894759054  0.3795099901279018  0.3623018306907644
  0.6274443321414720  0.3746977008717146  0.2827753987909023
  0.5617109490464326  0.3692282052845016  0.3116857414289010
  0.5627178854526212  0.3676823327713382  0.4147500429000582
  0.6286094636904671  0.3725407078692886  0.4426684801947485
  0.6500834860437320  0.4007646986244098  0.6476271114696849
  0.6080625763311860  0.4350866283435193  0.5702433899430862
  0.5647151426159732  0.3796077661386341  0.5634980519616777
  0.5726969605544379  0.3078445284030055  0.6333091523372562
  0.6216292016960587  0.3188911816385980  0.6833642532611240
  0.6740222717637100  0.3655205991200974  0.8620447682591538
  0.6151934059690053  0.3961780855935823  0.7969472557039474
  0.5630728634868264  0.4143933700769125  0.8421452771361891
  0.5831392988068715  0.3925530719694089  0.9382178882340390
  0.6502378973561337  0.3698624057118641  0.9518056467859164
  0.6540323022483798  0.5777826503402815  0.1052101808814992
  0.5778214173043519  0.5881883294651337  0.0513098412317914
  0.5554492790376423  0.6474131979341646  0.0847360996627629
  0.6165742354961925  0.6799874313039016  0.1575276390566203
  0.6732654569892115  0.6394968773200759  0.1727707276937910
  0.6512880952550051  0.6702009455095823  0.3743690185775203
  0.5943208913993445  0.6672700387992815  0.3001503176403204
  0.5593744321292137  0.6094525693964022  0.3223726301353368
  0.5893209885354758  0.5722807882563674  0.4095076235341174
  0.6437069900997299  0.6067460562353254  0.4417631707743871
  0.6525249219660619  0.6422944983880386  0.6398518271836019
  0.6166104953681464  0.6870889209760508  0.5666188012735165
  0.5650860578152622  0.6390451261988765  0.5553782837243701
  0.5620984293597280  0.5619111393332783  0.6208615658698037
  0.6135811057825581  0.5613969042409294  0.6694070897457687
  0.6593875566736805  0.6323283247350221  0.8477742447406043
  0.6181246139624400  0.5568080438570989  0.8105154429050268
  0.5666742902633691  0.5532828015914594  0.8587382513803279
  0.5688503893283445  0.6246832174850934  0.9290522762704061
  0.6216844620267541  0.6719367610512162  0.9258409710706498
  0.6862385098383659  0.8760169850102248  0.1260912434618075
  0.6396799028872648  0.8713310500283601  0.0470769003296814
  0.5739751290419363  0.8751868968905989  0.0760643031720819
  0.5762279327535044  0.8831258712140385  0.1801979373967072
  0.6431934092051192  0.8837387307377834  0.2063575282920104
  0.6446457905264112  0.9242379231259058  0.3836124260900592
  0.6757646972877821  0.8647900140120168  0.3176501979009824
  0.6208493848823773  0.8205422782702975  0.3269085919485522
  0.5504461852386524  0.8470176774048277  0.3941203875260116
  0.5634435657458743  0.9076460480827281  0.4287392190302712
  0.6694453267061378  0.8779055185052715  0.6323640593891229
  0.6415556511158903  0.8812967072384832  0.5437042393292838
  0.5744082545080674  0.8598732201872856  0.5579796087291073
  0.5584415228328091  0.8297329061609592  0.6518881314682440
  0.6116332154402718  0.8417421078671078  0.6972052146210890
  0.6548491747217642  0.8995327441743195  0.8956180566086495
  0.6184903269043964  0.9421654907596086  0.8223016568527796
  0.5639519223247034  0.8964078855570964  0.8148486519705684
  0.5614765638872312  0.8210783046994863  0.8832887321885960
  0.6146748457684765  0.8216200925124363  0.9301654990690926
  0.8776317844056043  0.1691783282272834  0.0777893754004409
  0.8026868254071360  0.1139748351879468  0.0602427926547980
  0.8188269738207351  0.0682933578679967  0.1107935301073930
  0.9055206993205323  0.0882603533135651  0.1621890108310507
  0.9404046679289081  0.1479204436995610  0.1433141265491348
  0.8907216593892032  0.1679741754696254  0.3654766541078235
  0.8314390084602661  0.1459618817850786  0.2958554445517775
  0.8066116344122566  0.0878223614103288  0.3291428253992031
  0.8483671050257043  0.0670010851450442  0.4162989597198475
  0.8970599774649288  0.1130342111955523  0.4404273211740549
  0.9057903133158631  0.0928172038684165  0.6081208145331035
  0.8714837408875566  0.1648567484765506  0.5591120424211438
  0.8177024770046647  0.1776196922573199  0.6040717230673209
  0.8130218552088850  0.1160727113467404  0.6838899490273233
  0.8635302526673793  0.0666199012953555  0.6877903446199495
  0.9102133551847793  0.0713499399996628  0.8734232784725610
  0.8292067425013481  0.0632799009604595  0.8257018037046334
  0.7963581533557409  0.1154095275378051  0.8606422730932433
  0.8534920402288944  0.1613631575048379  0.9310125060486412
  0.9194126963006265  0.1346485599924774  0.9407844223916690
  0.9072840899762317  0.3970369906346914  0.0982473193108659
  0.8728729205468838  0.3135567049879546  0.0725083172845911
  0.8178840892929302  0.3155400245114745  0.1168369377214059
  0.8118341686855541  0.3996202956722724  0.1740577502674984
  0.8634823630282403  0.4474567351771309  0.1641021582910895
  0.9103135977074932  0.3770630010244732  0.3450715646293260
  0.8567253981817158  0.3069554964228608  0.3128424002087815
  0.8076843027028653  0.3125071830107502  0.3633678840435530
  0.8253449928506393  0.3862125668133214  0.4316182074211544
  0.8859982844944101  0.4233411770022172  0.4214747738380998
  0.8633799599845629  0.4230950978305898  0.5853786895568532
  0.7905102699542327  0.3642927066263452  0.5734149954300891
  0.8093244434325373  0.3230351180129530  0.6270342372909996
  0.8938829488893762  0.3517293140384916  0.6769759882810531
  0.9268558476285866  0.4106903944833771  0.6521620153192981
  0.8995059410883751  0.4270215246369899  0.8783572503482978
  0.8488130631902626  0.4159142908781137  0.8005695811031357
  0.8227736193566854  0.3529830231300617  0.8206506172251117
  0.8524626788803528  0.3201083737315274  0.9093626237864884
  0.8994841234965245  0.3608033775662377  0.9443763098639459
  0.9359475409180115  0.6202677105500055  0.1292324271904933
  0.8915801916802873  0.6229251890543537  0.0494461765454733
  0.8251718795165371  0.6238815963525113  0.0765543672931065
  0.8249373452175490  0.6225720611845241  0.1816469342545460
  0.8913269586100675  0.6193839998980060  0.2089266135590055
  0.9094180308662316  0.6453451597133910  0.3803268814917704
  0.8595970199203229  0.6820408244270103  0.3085818059549333
  0.8112720621409529  0.6303205293679293  0.3089943299045570
  0.8235128333910514  0.5585564186513907  0.3785600124657693
  0.8798483365972835  0.5670325989079587  0.4215666530323469
  0.8704052621432047  0.6693903547865649  0.6127657849949236
  0.7891846957868159  0.6396054436918452  0.5738302265370603
  0.7879272986065162  0.5792315346908762  0.6097590751328544
  0.8687011242636105  0.5640254802455354  0.6714044710751507
  0.9159996269486802  0.6166174887834550  0.6759360450662891
  0.9281977983529881  0.6212085368953472  0.8597060313415414
  0.8745652857215361  0.6310763573449766  0.7864133533695024
  0.8119628064352234  0.6244706492378265  0.8207761850862830
  0.8238508664341387  0.6109447899431344  0.9231290932051434
  0.8928678773663562  0.6092327990785412  0.9435930985574550
  0.9056899054068477  0.9209450261782044  0.1139848590019688
  0.8385929183929869  0.9141850926439706  0.0478835738121284
  0.8121221798684159  0.8535078327228032  0.0743786016339559
  0.8593097724553376  0.8164379563278716  0.1531140381804536
  0.9133229063770456  0.8550883810728572  0.1799246973197219
  0.9298993969136062  0.8709807402617989  0.3672849446882242
  0.8828996339859834  0.8726531763992994  0.2888859390591868
  0.8179663645724791  0.8819202594093187  0.3183378648571688
  0.8209213871803200  0.8836830140561598  0.4220015376606300
  0.8879258238487974  0.8792202606751562  0.4483391956485772
  0.9008724666175151  0.8749953351679403  0.5793249819160665
  0.8324992525330263  0.8095422800833948  0.5820138310334688
  0.8004360194726723  0.8386394498244507  0.6383113287151069
  0.8455915412464206  0.9196787364957986  0.6764128305134599
  0.9042593785817509  0.9431512037118401  0.6423263544229114
  0.9006341954762830  0.9199198293956641  0.8757759724524559
  0.8338104731610085  0.9125119423205447  0.8099285042624740
  0.8096994158230547  0.8502503653012190  0.8343367755115773
  0.8581100938294165  0.8132708593930141  0.9134937403398209
  0.9109036961059374  0.8533684169611470  0.9401981100262321
  0.2392866285455692  0.9910821744528171  0.9965820996599377
  0.2357154485383778  0.9891689985935287  0.2494863611780066
  0.2201087885004869  0.9970687783679142  0.5162927320687706
  0.2231787778847101  0.9966485821863481  0.7510136964321097
  0.2309863859496350  0.2452473344578462  0.9968862206896926
  0.2285631381434143  0.2358639524288733  0.2499900761209213
  0.2388417766655473  0.2530490092586831  0.4914037033985592
  0.2279743896921346  0.2565997590922454  0.7447488777742561
  0.2384334521989266  0.4984520115573243  0.9987246254802206
  0.2290582036333875  0.4937903706386524  0.2606624919272402
  0.2367391345810665  0.5000273929827354  0.4997695095349805
  0.2355317747067748  0.4964588442088537  0.7389871988836384
  0.2364437205539373  0.7469493636102246  0.9954381657130718
  0.2334812038598776  0.7507333788313250  0.2471392623454177
  0.2331894839836229  0.7516977433356493  0.5091793956514653
  0.2314750236771231  0.7423861509462318  0.7641798303364942
  0.4907251276612993  0.9980671786453180  0.9949299518488447
  0.4848208529166519  0.9950409260523111  0.2508767768799933
  0.4756498153294426  0.0032052115735475  0.5055713713718947
  0.4791834201949866  0.0052223856646626  0.7420859121962872
  0.4895948972553991  0.2538500817681894  0.9937747676238599
  0.4841614269401495  0.2503391274784839  0.2462897196225677
  0.4893873173187765  0.2472816332937733  0.4990840875731777
  0.4846988120033899  0.2471709503191829  0.7560470331848816
  0.4738133318667579  0.5001821218559508  0.0122178410775386
  0.4806523583057565  0.5004740416386200  0.2474533389584138
  0.4872098054858359  0.5030765854482290  0.4989567085170212
  0.4921381861711759  0.4979311923668820  0.7423304732298699
  0.4921254890064701  0.7464992662509365  0.9913894246969973
  0.4792177885992209  0.7571665630091671  0.2430806749407421
  0.4862972373800875  0.7470071587182168  0.4954534157387652
  0.4830203506843841  0.7456870529380051  0.7531317615503192
  0.7254356197133691  0.9998296278149135  0.9849669414815135
  0.7357714298405185  0.0019138561454667  0.2422652284989230
  0.7349558427831021  0.9982884664388638  0.5051587845686285
  0.7304248631797989  0.9951989691345559  0.7419605069158567
  0.7405438368698573  0.2511315639465136  0.0002439087333299
  0.7316966208827588  0.2430277924455666  0.2385006940651518
  0.7222476308375885  0.2472516313750836  0.4950669209728820
  0.7330432702937666  0.2486906191063712  0.7509124398565583
  0.7376579776628062  0.4924688376327536  0.0072066699683843
  0.7370646980467586  0.5037404691006762  0.2529872848905037
  0.7277850311790701  0.5063454818580808  0.4992831105171560
  0.7373529905276200  0.4966409603657178  0.7486823929831171
  0.7405304512525972  0.7456789034498743  0.9930445560057732
  0.7442391405013342  0.7531088770850493  0.2433956628324765
  0.7257714359122793  0.7464785026064357  0.4915255553420348
  0.7325025903067937  0.7453742778656446  0.7446510006807375
  0.9842145504249563  0.0001375235964474  0.0040470064623833
  0.9800202577852021  0.9977779617835905  0.2660604946752654
  0.9877356639378013  0.0016937113896895  0.5007843190377387
  0.9834072797583653  0.9954773076249732  0.7591389072182567
  0.9885904106950558  0.2459273811599455  0.9952754370712469
  0.9869437211607146  0.2376553409203304  0.2516717279308829
  0.9781628712335027  0.2605835926519465  0.5054464168290669
  0.9854903490171567  0.2544861105028610  0.7571822871882260
  0.9772676220354449  0.4922283014423764  0.9998269507075024
  0.9790274397623154  0.4900766889431530  0.2549461347299389
  0.9826777702241669  0.4920151672199923  0.5155802769956170
  0.9798950628364456  0.5010411919318184  0.7550412327136315
  0.9821173883268254  0.7449721877619653  0.0006560090857782
  0.9895508492304839  0.7479409345538440  0.2533237273960184
  0.9811305977451296  0.7402301269474125  0.4967895808703249
  0.9793095171538068  0.7455726320982470  0.7616043473137487
  0.1226321968257113  0.1120027827463862  0.1247359208315475
  0.1235695102465421  0.1213304154444482  0.3803985303068502
  0.1259217573817867  0.1280394998658720  0.6274419834208365
  0.1214652415023345  0.1265195335508720  0.8748171239636129
  0.1194970272853181  0.3767905824642958  0.1215999929332267
  0.1226468486122230  0.3563026181918151  0.3710444692814281
  0.1179195730590913  0.3875620942034036  0.6347638646592301
  0.1223344949578221  0.3785818840549671  0.8807288457750410
  0.1335934648934944  0.6180186749295955  0.1240009203817581
  0.1286917964311664  0.6195546540876302  0.3721061159571917
  0.1244645671684179  0.6104949683064126  0.6190376252168640
  0.1162232475999301  0.6208180591439291  0.8764524184310775
  0.1129699221556002  0.8800497980165155  0.1256347584814595
  0.1190677476122270  0.8793215691582641  0.3680599887191263
  0.1124644169283862  0.8785716685660627  0.6266632210071155
  0.1188780241892184  0.8718777698197603  0.8823461430951554
  0.3708105935818258  0.1064656136893067  0.1249119675834214
  0.3637089779994005  0.1308886819127170  0.3651615136303046
  0.3848949995110731  0.1346276532826820  0.6199755341251867
  0.3690104753812009  0.1212219783464226  0.8570110154551243
  0.3841993726220493  0.3831005391342115  0.1220332651072151
  0.3673029870378435  0.3700108237127645  0.3640853468564254
  0.3743331133234389  0.3849075593450821  0.6179326123525145
  0.3700044689853935  0.3800835455897507  0.8602233009787206
  0.3699940799299227  0.6243009857088214  0.1275485925673842
  0.3700547318198144  0.6202720991394400  0.3724289152933656
  0.3696291108840296  0.6173979244259916  0.6234757677109594
  0.3649361087137067  0.6271409688342984  0.8721579432971357
  0.3759263255282065  0.8786770996753007  0.1316188563736890
  0.3498828862770949  0.8884772791176495  0.3809322189742499
  0.3745831414119134  0.8647592141794608  0.6272127846286422
  0.3700965553207624  0.8713778441450569  0.8679700579071902
  0.6269325967599204  0.1352567852858620  0.1269440938310141
  0.6148524892390757  0.1286063316439715  0.3740212084163653
  0.6149720862526575  0.1314077758686215  0.6264680478976098
  0.6195506802270212  0.1341400592224922  0.8682067637811163
  0.6217161367252024  0.3906914719874008  0.1247530894136524
  0.6280808411013618  0.3754953900474527  0.3626947289229703
  0.6175642932531076  0.3777786421899396  0.6276060605115247
  0.6331108675914615  0.3800936215740612  0.8735051873121560
  0.6267963370866055  0.6126046906542068  0.1111121080044950
  0.6202263341849310  0.6382386538214643  0.3711792313950336
  0.6166882616672247  0.6253917491652946  0.6191478506009137
  0.6227888244216956  0.6151674286402539  0.8668466083663479
  0.6412156610738416  0.8775174309603305  0.1268272793026902
  0.6210117629077415  0.8878001983844113  0.3745393152430356
  0.6278048269108588  0.8649938988546753  0.6214693323699192
  0.6175182959535953  0.8831353524659846  0.8771810800631092
  0.8716836260825399  0.1325357015658571  0.1016152873885034
  0.8650173319986489  0.1316925383126276  0.3681603346641011
  0.8693332937096457  0.1145877182077389  0.6224144672206295
  0.8759600263217991  0.0989221984686981  0.8819433122129245
  0.8699870393188130  0.3813301595238859  0.1173385520967007
  0.8724069789309662  0.3660977987795836  0.3662811682992749
  0.8589594720330758  0.3885193064332987  0.6123542003448448
  0.8744454789317138  0.3906301399034390  0.8731748544590863
  0.8909582739783189  0.6215434378322182  0.1291980019386961
  0.8725584605964072  0.6248369614117200  0.3653687000616070
  0.8534342822633512  0.6301086733144735  0.6240546434095073
  0.8835064833322627  0.6197181686318262  0.8649376945559482
  0.8775747406424876  0.8863183403975370  0.1136656562159263
  0.8851491050748063  0.8758321792623466  0.3685670641368230
  0.8692841889084721  0.8765965000116877  0.6106548426808122
  0.8737260125875920  0.8844702441270997  0.8748749590358378
  0.2348994056676553  0.9784673873266283  0.1200580643355337
  0.1105632929750274  0.9867987577800392  0.9991060225391400
  0.2415545168725854  0.1173141526569698  0.9767262015057592
  0.2289889121019984  0.0057209349190379  0.3737008992414351
  0.1068918788428013  0.9727232835250118  0.2494325493318715
  0.2292169986748205  0.1265386000118418  0.5020525616449276
  0.2267591430166681  0.1298022213621452  0.7416806238307203
  0.2306851674532650  0.2229651421664590  0.1213166834264934
  0.2295138539124413  0.3720711138589006  0.0036296307940774
  0.2294420706132120  0.3601513529634418  0.2348172767206888
  0.2553517627289605  0.2549927643328195  0.6171239607162968
  0.1083174600215886  0.2646892162464437  0.5006432845725586
  0.2271189277188921  0.2544580592631513  0.8710786126809164
  0.2407372197714674  0.4944467790424941  0.1244431783507302
  0.1069277006777295  0.4989919552401909  0.9847244032902157
  0.1040599075929506  0.4770585991520918  0.2428269246640462
  0.2275459083389867  0.6189462391127996  0.2510067128375257
  0.1106945286212103  0.4966411339460977  0.5079407238394806
  0.2309658356656526  0.6258312708391427  0.5070598651545546
  0.2339081838914374  0.4968398592295977  0.8649544959079485
  0.1069206907136889  0.5054339930636480  0.7316799898136667
  0.2492753110152257  0.7545842479367598  0.1209947106587481
  0.2330084603394318  0.7408044499204423  0.3736863535503567
  0.2473848870966809  0.7516485318835321  0.6315097950978722
  0.1077321243586292  0.7597838993739435  0.4855744830795121
  0.1034270564208184  0.7571100084182085  0.7421805102426184
  0.2268918416526746  0.8725156026724350  0.7476109574631736
  0.4997498185803110  0.0033789905570987  0.1227765371724301
  0.3638308225853853  0.9855522117675590  0.9852532795862241
  0.4780426759580001  0.1258431544987311  0.0066130885544320
  0.4697390475259572  0.9884052243462679  0.3751278823758659
  0.4866198546161986  0.1233285865653147  0.2554654782242122
  0.3477659212389441  0.9939581190425620  0.4973443184626572
  0.4845479852426414  0.0175362111313024  0.8662401242230021
  0.3503246934789239  0.0067080954337376  0.7362274138072505
  0.4906409550164439  0.2760884045966400  0.1154229483973169
  0.3609218007500291  0.2534869106762570  0.0011419147695499