H320 Pb64 C64 I80 Br112 N128            
   1.00000000000000     
    24.1053515515716867    0.0000000000000000    0.0000000892331945
     0.0000000000000000   24.6676197466652241    0.0000000000000000
    -0.0000031898352367    0.0000000000000000   24.8748944363592202
  H               Pb              C               I               Br              N             
   320    64    64    80   112   128
Direct
  0.1545996393543611  0.1677879028484448  0.1041312353058424
  0.1382648169186831  0.0943148246860644  0.0478754360864416
  0.0805316366262081  0.0712547790353864  0.0856595091514794
  0.0572593686621061  0.1265553421934445  0.1672901739141549
  0.0984154689719380  0.1842116720852649  0.1781723196725356
  0.1858208529640041  0.1218902644802659  0.3645811008023154
  0.1391327959134298  0.1230071129227105  0.2854398893782166
  0.0725459621826174  0.1251310796390938  0.3148304527310127
  0.0745619477288628  0.1239867545819109  0.4196416653249854
  0.1422814265336313  0.1225321941201578  0.4465740650372143
  0.1458606951026050  0.1743274750148848  0.6098075129615997
  0.0693371480661419  0.1538920442223866  0.5579627858826113
  0.0544314744103092  0.0931246738814698  0.5927335785657379
  0.1234090312157750  0.0676015246830404  0.6637334534170233
  0.1761810532770879  0.1144545874065907  0.6771262740664487
  0.1637340231728630  0.0902652451340320  0.8811701628667572
  0.1196486957957827  0.0737694633529254  0.7995671791552422
  0.0721190135547219  0.1266788743461125  0.8072616975104752
  0.0800855164609428  0.1798196109856802  0.8946527783888617
  0.1333949356006024  0.1577968565877172  0.9380846452034605
  0.1542589218228225  0.3914462986754662  0.0971522949416102
  0.1070990848448858  0.3121966117919320  0.0717124774940380
  0.0582846300189321  0.3177273088401841  0.1231025082869463
  0.0694695661767148  0.3975570002000918  0.1853631044365834
  0.1248842681902146  0.4416544126444114  0.1709267256923947
  0.1574181496520744  0.4115266670391681  0.3893613439683505
  0.1042076727316517  0.4282668816450922  0.3127059400449483
  0.0627219960166705  0.3707142230582686  0.3221186791551618
  0.0853066780477580  0.3132418964778474  0.4031712391532707
  0.1405195296850150  0.3383337675599186  0.4435372838647985
  0.1235171342662231  0.3349478120452686  0.6594905601829452
  0.1093693543099401  0.3260690163798000  0.5666905098872937
  0.0928127306042513  0.3952047679759768  0.5588362969457423
  0.0829769876302293  0.4489197458309824  0.6429623819804933
  0.1065855499429511  0.4189419734266794  0.7020722098188054
  0.1547211487998685  0.4135501662935950  0.8725293411332689
  0.1425657160712510  0.3382032271020534  0.8189666400799938
  0.0828757743981617  0.3157582298730217  0.8544471426390169
  0.0524403778827221  0.3761760206695436  0.9311339182023844
  0.0946792818290644  0.4321071697090499  0.9438598424021366
  0.1732247180083017  0.6278005674820603  0.1178569078598818
  0.1190600575035458  0.6404844469655249  0.0438515451341126
  0.0561627548484430  0.6429440220197693  0.0798356389513129
  0.0682493107199212  0.6303515257866337  0.1831447260095428
  0.1379186444452160  0.6229499783456071  0.2029147488286011
  0.1619852571958666  0.6290856243190098  0.4088504847963378
  0.1307826307886634  0.6869245477701506  0.3419501518588693
  0.0741082832612712  0.6453199647293866  0.3246003937777305
  0.0639663579383921  0.5590567764966874  0.3797113293332685
  0.1144998367835668  0.5488248593296399  0.4285785903177146
  0.1702993003743661  0.6211254664658521  0.6269614969682911
  0.1189561635265082  0.6284962179859336  0.5505117048933265
  0.0545600228065636  0.6275186923052433  0.5835709192064868
  0.0622000549561743  0.6198599201437098  0.6877197425414159
  0.1311697011678845  0.6180958683605782  0.7110442005651838
  0.1518056611225754  0.5920963575074850  0.8727147860060006
  0.1328015890193181  0.6686542093623109  0.8216623039235452
  0.0729556901765190  0.6854987533698291  0.8587786873087977
  0.0484851999544406  0.6208981885453916  0.9343212048062549
  0.0946296485911456  0.5672109364951696  0.9441413957777812
  0.1583882325289264  0.9021143059947231  0.1381575714969913
  0.1093130819585281  0.9387895077470833  0.0650558770444287
  0.0614577242441583  0.8858040924700213  0.0628233715530667
  0.0768219118322320  0.8099769185363578  0.1309207727705630
  0.1320250712773164  0.8200948116659642  0.1756099125285457
  0.1543735904372681  0.8254042320572224  0.3693710568367028
  0.0972730541148840  0.8401293231189020  0.2962807391481273
  0.0664410690677622  0.8988606457739315  0.3249143451947901
  0.1013522880940152  0.9252840742649955  0.4153603683940128
  0.1529673222532194  0.8832071244465002  0.4433333290259249
  0.1415086188030528  0.9180343600450996  0.6074092016019274
  0.0644935124917156  0.8885810489381925  0.5600478117306014
  0.0544966809719009  0.8308627067324372  0.6005282529110311
  0.1230420199540941  0.8191456017187199  0.6763715343540349
  0.1744271425478290  0.8688093136355211  0.6815374862897509
  0.1057753131585571  0.9358484402853745  0.8678622796504785
  0.1044496287638759  0.8911120997298699  0.7873519072005362
  0.1035672210218166  0.8258211998974130  0.8153356957120158
  0.1018490294730991  0.8263939510579167  0.9211632183433311
  0.1047178603650949  0.8922734797776708  0.9480723861182542
  0.4091587699052210  0.1620171215192382  0.1070333349504230
  0.3302955622102010  0.1699430597898346  0.0546705523614680
  0.3015268157902821  0.1083356624389001  0.0789235792829186
  0.3594310298912902  0.0563464881047967  0.1422066125524056
  0.4222907129847758  0.0869208493062126  0.1625058024259679
  0.4223227462667255  0.1134827500265964  0.3693271328935067
  0.3978527534386286  0.1117019257917318  0.2796377449769312
  0.3284996232651793  0.1320628888459416  0.2916325441469269
  0.3103343954559569  0.1633827054577804  0.3875435352633543
  0.3635521978053863  0.1475080351672122  0.4335861386363970
  0.4081861104933848  0.1026217130090821  0.5886579896920451
  0.3669475837899128  0.1819642312096892  0.5557585093757480
  0.3234933877982835  0.1893419611742155  0.6113444201395738
  0.3304455026748173  0.1168024155352839  0.6822536924964215
  0.3794229485178138  0.0656619619821864  0.6706686342791417
  0.4077664398625901  0.1656771475781915  0.8680016423660495
  0.4122552848729996  0.0953629137425648  0.8061345572903551
  0.3526214321463157  0.0625258029837904  0.8327654369793661
  0.3062768197281123  0.1087630307284108  0.9088949439473903
  0.3373926757492542  0.1691846981803428  0.9318503146823200
  0.4025541546147071  0.3515000416970115  0.1439606061403989
  0.3587881497716530  0.3108619520863108  0.0697594071602743
  0.3086770508484714  0.3617123456736914  0.0648714041265343
  0.3127950532298772  0.4356052562792664  0.1334122560596167
  0.3664134417951725  0.4317708315584878  0.1806034823512089
  0.3770131993553779  0.3208047972566405  0.4002173499977716
  0.4204548111812663  0.3465493132141968  0.3213700794586078
  0.3786932630427552  0.4046236333098024  0.3126402153138423
  0.3077496087299534  0.4210955349783816  0.3851534316311405
  0.3040956036090094  0.3727635495155773  0.4360415914216786
  0.4007157139201556  0.4195331922924601  0.6279927212648879
  0.4146282155004881  0.3559975577239983  0.5595544031091787
  0.3547340766813179  0.3191539462143741  0.5761706122457126
  0.2980273482355084  0.3553612912611093  0.6518633556929260
  0.3238571186069128  0.4147152078990519  0.6834191702257040
  0.4315558826292651  0.3665086482039313  0.8770556610290525
  0.3925512739564676  0.3604746237750466  0.7932635252647564
  0.3235501503391308  0.3649806591970615  0.8166008936484906
  0.3157474011593184  0.3731141002466961  0.9208981806846569
  0.3807428203164983  0.3751779969284691  0.9533498375360012
  0.4273841298818369  0.6143716928167299  0.1092120646523755
  0.3627296131531788  0.6485317200448113  0.0502908462136114
  0.3143274720282089  0.6646556977058234  0.1005447151495490
  0.3425402341645626  0.6362079508622339  0.1950826010314576
  0.4117324457358053  0.6134973367606467  0.2011975182893192
  0.4025633818107281  0.6708625532924990  0.3846530385398333
  0.4234284646266432  0.6076494251054327  0.3177683999071606
  0.3676410832459137  0.5654821966507219  0.3344475087620598
  0.3077443354161229  0.5966928371653974  0.4114169611292482
  0.3289528151410523  0.6581189037097779  0.4421623382470906
  0.3661817012625560  0.6689865296591160  0.6560966828880191
  0.4118785619989468  0.6358453138363932  0.5812490848231979
  0.3656951611284206  0.5814747419554591  0.5718872915616129
  0.2872477723572037  0.5755160034273675  0.6408155472776480
  0.2880317495631304  0.6259725838621314  0.6901960389665220
  0.3913500269707554  0.6453833066647739  0.8727683420206980
  0.2975289563180246  0.6749028187167703  0.8734376788110421
  0.2735526523092852  0.6078870069699486  0.8805162897763873
  0.3392655473401370  0.5358409668627692  0.8845817533233459
  0.4104914976693824  0.5515797130015330  0.8807687511903203
  0.3587598341655319  0.8200726793226765  0.0734032927802138
  0.2923181417981061  0.8874811259443697  0.0652461232677964
  0.3131436489556572  0.9211368694963599  0.1243280473891022
  0.3931140175450578  0.8783321104009599  0.1738649276812831
  0.4210680754647754  0.8189439756745660  0.1438552359497812
  0.3604393358485233  0.9373508290181052  0.3770411225536365
  0.3671664186252616  0.8918767090478065  0.2968667501490100
  0.3677235389110035  0.8269548656497292  0.3256861303557390
  0.3616303362699598  0.8281112907362335  0.4309478690493776
  0.3580795073087503  0.8939866697767421  0.4581708416192742
  0.3820761810378010  0.9147899045386209  0.6360717097482981
  0.2893571760718477  0.9157944847005209  0.6069957776756971
  0.2824637740704337  0.8448272419385682  0.6173040568964875
  0.3614511129688440  0.7964909116731863  0.6549819827478685
  0.4215098225596235  0.8350777353788937  0.6681529799837521
  0.4360432130791067  0.8698726712240892  0.8713626934371443
  0.4000161243924175  0.8698962238581271  0.7861298643873140
  0.3305066951706669  0.8755327967885290  0.8071015567242610
  0.3193415693467225  0.8823033585054809  0.9116112525485272
  0.3827094565475233  0.8792664145100912  0.9462748724451291
  0.6609983723466782  0.1663350810163612  0.1255621508974476
  0.5994536215259424  0.1855101031491383  0.0552016459753299
  0.5606479337222903  0.1267600350541921  0.0651256160897405
  0.5930552137605817  0.0654574835487953  0.1402543911761915
  0.6524228055288683  0.0886923834163253  0.1759165785484154
  0.6530620554741275  0.1536695930918857  0.3766118825787126
  0.6094767204694638  0.1788669079854315  0.2955556588736443
  0.5656733000233671  0.1224245321497298  0.2960162663613269
  0.5752559997619350  0.0582910460925983  0.3738830727150233
  0.6269287398046743  0.0745393300076879  0.4208765119703983
  0.6709789352465499  0.1211602050414137  0.6150875645877826
  0.6157085836594687  0.1286569337723081  0.5406579671227968
  0.5533479111075053  0.1310176366428625  0.5776485006236740
  0.5657674508866745  0.1233206036721782  0.6797465645359021
  0.6356102559813157  0.1202729828173267  0.7008911573898241
  0.6546763726895246  0.1493064757127043  0.8476411579839127
  0.6294021043337064  0.0645121883686572  0.8134853914990764
  0.5771938094750880  0.0547512054580067  0.8613204744324701
  0.5638672098869404  0.1306130117462175  0.9285276210661154
  0.6082083623234616  0.1862519557678547  0.9211248984488596
  0.6624501639033539  0.4039160351902193  0.1073305032004055
  0.6267880232350879  0.3398940244730079  0.0482238227297378
  0.5713075123883594  0.3220905434679546  0.0907014701713220
  0.5654016758375339  0.3746593669671575  0.1776191077740377
  0.6182063790815621  0.4220775737139872  0.1886896899319359
  0.6610444581128543  0.3993325528472818  0.3553645473921337
  0.6273587044488727  0.3287005273998076  0.3022052168700536
  0.5715784973132034  0.3148045672384231  0.3455970427537683
  0.5655114222899504  0.3731159020499043  0.4286431776485084
  0.6163815084483734  0.4227194406004839  0.4356822443787934
  0.6602257373661123  0.4066100865012139  0.6157773458671191
  0.6372365928085968  0.3360072259520440  0.5590969155375045
  0.5842833569622994  0.3108307434024243  0.6015294946846533
  0.5691800632873261  0.3644165571219299  0.6868475429336000
  0.6124266431113746  0.4204354730181902  0.6966438931969722
  0.6581685785471268  0.3411990132391232  0.8894529797128169
  0.6076102028898633  0.3151016942771633  0.8137216966955175
  0.5578350282607026  0.3656260812372326  0.8218154532222444
  0.5717495321603083  0.4282831539511233  0.9021146062886208
  0.6304745330222690  0.4137827302534464  0.9419377654387188
  0.6541247697299590  0.6512686477755598  0.1327490626827455
  0.6012235240590209  0.6807378042236906  0.0586809727832803
  0.5543026091707921  0.6270273954919388  0.0640228287938648
  0.5708969911875400  0.5609337190175421  0.1389244320663370
  0.6296609959639374  0.5734582129183651  0.1791851647936173
  0.6566623796567411  0.6038334783779554  0.4108730069738559
  0.6290760163862306  0.5542917977743372  0.3370495481815856
  0.5749381098881647  0.5988864750701125  0.3197827392518218
  0.5638431555677209  0.6803631104715219  0.3822894321283317
  0.6097134500077928  0.6822998901633799  0.4366846115423240
  0.6538494374801479  0.6662193393990947  0.6261536804000403
  0.5821304956235142  0.6533161993127298  0.5653821092537687
  0.5560791679390628  0.5959719879496020  0.5995726245105846
  0.6094373743518411  0.5671038693141339  0.6816914366170362
  0.6662048650867891  0.6083288398253599  0.6987251676724722
  0.6584745000288663  0.6213161322064953  0.9271745865347136
  0.6586008616711676  0.6861383467772408  0.8589681692443927
  0.5992889102026916  0.6582282740190794  0.8275545859904290
  0.5568163121664133  0.5784011692004459  0.8720799635473092
  0.5902563644015388  0.5547157513998876  0.9307155199424491
  0.6140039325709625  0.9218370588845038  0.0988307083619381
  0.5354623001340697  0.8723485002311938  0.0718981061557394
  0.5438922226207195  0.8233275003372466  0.1217103371224298
  0.6246591743910580  0.8373277426607585  0.1851702377531105
  0.6673032985931699  0.8937477325485517  0.1704018276225533
  0.6532654004425769  0.8907570105968677  0.3924645011652361
  0.6138065631205776  0.9232352360238884  0.3122098555335204
  0.5654634259368452  0.8704854003962741  0.3085350155479537
  0.5670861860345969  0.8029619664109822  0.3842286781939365
  0.6175015581043873  0.8137316916463216  0.4340623603766084
  0.6895198704750083  0.8755057258816200  0.6242016020092150
  0.6485892499990453  0.8750545479684503  0.5402230191491262
  0.5802705635169463  0.8733615748436492  0.5657560517432005
  0.5744483652351425  0.8703115710572766  0.6697652322094323
  0.6397155449520279  0.8720025000139700  0.7013846531712465
  0.6524565461914095  0.8261536812792563  0.8797484204837633
  0.6621897917981724  0.8923164945442593  0.8135508097860016
  0.6050548080228794  0.9298788078129133  0.8366304995548949
  0.5558046223546698  0.8929311583317677  0.9172172118940225
  0.5835685686669106  0.8323488538554960  0.9440906023549687
  0.9325756361877029  0.1326098916159450  0.1113828226851179
  0.8817772853988814  0.1305913952334461  0.0347057502164858
  0.8166254204139267  0.1347724747288488  0.0667027184176459
  0.8245635258817231  0.1348092616134699  0.1720806975193085
  0.8935245424028850  0.1355693483965122  0.1952572553228504
  0.9063177233723345  0.1638990790187652  0.3734433196550653
  0.9094195744128003  0.1015561476166431  0.3034528316082750
  0.8534540623718539  0.0630708571005086  0.3295827374693034
  0.8110936551118972  0.0969898092228159  0.4134865049510635
  0.8418669973135920  0.1558855035904251  0.4419607394721872
  0.8956412306232749  0.0752248804514812  0.6190472762704591
  0.8120886833347246  0.0786211688321003  0.5736129090246591
  0.7931167635203031  0.1423236729140589  0.6020364622749782
  0.8610748731011338  0.1823453978856672  0.6656020720759660
  0.9208760112166462  0.1441315221182627  0.6786128363603732
  0.8723758044799813  0.1653910784130206  0.8877793597358947
  0.9156088473057694  0.1205159377201502  0.8154629079567505
  0.8648941252926416  0.0702143578570003  0.8125264260375004
  0.7875830409189085  0.0765662772492519  0.8778029300250073
  0.7896127910332094  0.1307232810274667  0.9239212243006022
  0.8964104727594889  0.4265234783396413  0.1211404536920158
  0.8297708283237057  0.4089894791552340  0.0569022972304435
  0.8053787389164556  0.3496985547365881  0.0896747013806141
  0.8537450027329631  0.3263540307162103  0.1761209439214456
  0.9080325830706890  0.3698047256943905  0.1948157475940754
  0.9056980496885095  0.3974034794088466  0.3964547047495417
  0.8660842635660143  0.4311385002573592  0.3166043873804108
  0.8207392348809242  0.3760349563706925  0.3102970886882150
  0.8259048795570316  0.3048312843064759  0.3818560344562360
  0.8746600321420088  0.3157505238319880  0.4329160453079666
  0.9316346991595001  0.3733083881748643  0.6266054736671575
  0.8747472091433458  0.3824346043635777  0.5531587814144079
  0.8150287780923169  0.3963215352882561  0.5916816677858171
  0.8297559374588710  0.3930925560362935  0.6935605920033071
  0.8995942750607199  0.3839305599061948  0.7129953245264773
  0.9054943621796745  0.4317161331696964  0.8835944134183875
  0.9158208371018558  0.3604037478241670  0.8240502778530759
  0.8568939319789671  0.3256738522065484  0.8471384478032423
  0.8033467163671865  0.3740775397069859  0.9227765340536142
  0.8333629852395449  0.4350568475786368  0.9441558522565665
  0.9069856718046962  0.6059918740189487  0.0889403052154407
  0.8603958599426831  0.6841802687438387  0.0603813375819989
  0.8159675477372269  0.6848359036930591  0.1156983727814907
  0.8255132186435680  0.6065688841512975  0.1804122289084917
  0.8798768243262411  0.5608556251760174  0.1662492244600510
  0.9082623580556769  0.5762161866542328  0.3743979752168376
  0.9153808821190939  0.6499972545946964  0.3163504350053500
  0.8546346982920778  0.6808863692219783  0.3412335345141779
  0.8047787335972973  0.6310026936016105  0.4135680605831226
  0.8362653298466162  0.5696477933331685  0.4350203638323942
  0.8963552329522972  0.6651686490591285  0.6223190918601994
  0.8262026807664413  0.6377903975451802  0.5647864217964275
  0.8047655502957606  0.5839811062535263  0.6070533786253837
  0.8565305396988230  0.5752786824750240  0.6944655218768041
  0.9118351150781743  0.6200552261838970  0.7038029973311022
  0.9079392200105849  0.6560837176991019  0.9012026132473332
  0.8682936652295922  0.6853773041664011  0.8202261621559417
  0.8178770952497809  0.6345864635940704  0.8202193778845097
  0.8181953724388715  0.5710732887554956  0.8999958712477695
  0.8712988185002607  0.5822336612574373  0.9470743495400306
  0.9102991833133768  0.9189140411493694  0.1024744603669204
  0.8406133260947529  0.9113195216423240  0.0381171548286442
  0.8083740302996216  0.8564784785851118  0.0715056258815279
  0.8557048760069863  0.8224732039686937  0.1539588844866895
  0.9146087906905307  0.8590142879667589  0.1747656747315765
  0.9323368736853828  0.8729176261525394  0.3749162460385301
  0.8960209935135102  0.8769113995697064  0.2899666361526186
  0.8262245307894504  0.8787685140717278  0.3112254495936292
  0.8151679476548165  0.8774215795418122  0.4155452946371194
  0.8787626155120020  0.8742888434838354  0.4502965858661749
  0.9056966636096201  0.9132080457999628  0.6149206005225841
  0.9017679938619384  0.8337944048080177  0.5662888970151577
  0.8439576860173712  0.8083556974411430  0.6025512731374074
  0.8076537730174703  0.8698094314508853  0.6758533252864818
  0.8440911474480015  0.9310334470045480  0.6837937041374609
  0.9096227143645048  0.8453461772161600  0.8419613312656250
  0.8829659923164344  0.9235361749307661  0.7974048012694325
  0.8259615828563270  0.9361231243094693  0.8399422445910539
  0.8126392473075617  0.8681349762868757  0.9146390426316277
  0.8600034922137502  0.8146101036075417  0.9171578469894780
  0.2434327599567584  0.0011674003710180  0.9925188896338319
  0.2388660268591276  0.0024864479928166  0.2543272949394005
  0.2361552428388385  0.9961203909001791  0.4921774956437859
  0.2494592184440460  0.9961751018198838  0.7361202368592884
  0.2255140913750332  0.2468030567794096  0.0010624145454801
  0.2391160510724107  0.2476505257287286  0.2499043246876882
  0.2325449677157786  0.2502649151931918  0.4936810736463033
  0.2410395756363090  0.2407435931325995  0.7617602237435913
  0.2314536547420725  0.5019159183630723  0.0116576400344087
  0.2375155383284888  0.4971729840976905  0.2552481995287563
  0.2254330378375956  0.4934010996996057  0.5190385223592351
  0.2264964066225005  0.5032529296258964  0.7628347339644409
  0.2262529262725990  0.7573050109713132  0.9948369211655373
  0.2453248976254827  0.7523968651676211  0.2521960369473240
  0.2391184891849804  0.7541417351328676  0.5086253553972619
  0.2347808136990442  0.7525418676261851  0.7541737567583848
  0.4825372204695048  0.0031248151994820  0.0015933282020181
  0.4973052473983331  0.9907162767608771  0.2389942442205109
  0.4905884755146346  0.9935142395381903  0.4945926278492256
  0.4935002433669380  0.9933214033234389  0.7414397125634867
  0.4791657247592407  0.2501132069425036  0.9900116174531167
  0.4878153353542961  0.2461620595378030  0.2304237119906215
  0.4839609996142182  0.2493007768205069  0.4925394914552981
  0.4881551358085010  0.2404506910294748  0.7513033063704723
  0.4716082470116171  0.4906908210071084  0.0080354249323852
  0.4899351471610726  0.4910437233503562  0.2477746576893338
  0.4835690534244348  0.4932494386838125  0.4982884663714667
  0.4876946209779731  0.4929706278603910  0.7569071164650429
  0.4811084285114221  0.7506579394628986  0.9959568081990501
  0.4898229551309344  0.7448673730471014  0.2476793383901689
  0.4803225654958244  0.7457891869956599  0.5164617371688824
  0.4879149654473486  0.7435812529028724  0.7598356677496920
  0.7302028860258007  0.0041837085927626  0.0176765367341962
  0.7392185323273550  0.9971558756085815  0.2490861986661805
  0.7259942763354524  0.9887328751340787  0.5002393859754773
  0.7355247953740300  0.0026587347670846  0.7379406027975807
  0.7306008313157009  0.2523852294305559  0.9925421841960116
  0.7386492768177964  0.2407612337365134  0.2432775475459752
  0.7362710190226947  0.2433564972510549  0.4994034183248361
  0.7306568629255068  0.2453971361425449  0.7550477701433961
  0.7307241395789448  0.5101205891468525  0.0168304054883592
  0.7386134657329027  0.4992747555540490  0.2566981530011553
  0.7380345964643660  0.4958752496954436  0.5013725314112594
  0.7377365140672517  0.5016349974201147  0.7714920575200188
  0.7322749753973443  0.7501747788017884  0.9948301578212598
  0.7339913788750743  0.7535190035511081  0.2502397648566899
  0.7334227382043651  0.7482432194612041  0.4993138482776390
  0.7412054649198182  0.7497547431189003  0.7535039071580257
  0.9803305388440733  0.0017836562406230  0.9788094996866349
  0.9902812605894947  0.9970533192466278  0.2396377374136237
  0.9802524551003867  0.9961228567200233  0.4969516187077560
  0.9865940501552983  0.0056555097988198  0.7402755341716121
  0.9788581570470315  0.2584301728089376  0.0051264513159553
  0.9813251954424325  0.2525389857732996  0.2496069710277923
  0.9813254559984518  0.2466177422705607  0.5098280236261847
  0.9876961646821634  0.2559671999451610  0.7460879666270528
  0.9807936977483682  0.5007663750121836  0.0122688726387633
  0.9871374213173060  0.5036639512052939  0.2551445794661790
  0.9807355313578422  0.5002158696291249  0.5063993961269159
  0.9837016165618804  0.5046256459622336  0.7712166614900594
  0.9825397508078959  0.7559934978071350  0.0034305206444323
  0.9926046547080881  0.7507451733798043  0.2451095294910482
  0.9858898432021835  0.7501882192989022  0.4804287317183774
  0.9847503848231419  0.7508153913411604  0.7423116922388159
  0.1200804775120157  0.1398199780547136  0.1127333134304995
  0.1403170846689034  0.1229388538822678  0.3658677394560743
  0.1229770296472263  0.1365477948344428  0.6173802338547798
  0.1285019516532964  0.1158099480684504  0.8689978835515907
  0.1177618425536748  0.3780009078457279  0.1200117166775265
  0.1237773716471340  0.3834989241506255  0.3785308578952771
  0.1095528802114957  0.3700973131365594  0.6358478558251726
  0.1196645343142891  0.3862399694203361  0.8804784006560680
  0.1281034281475852  0.6308557832476616  0.1233167287841202
  0.1247336846371296  0.6181895526519139  0.3857109924584508
  0.1249166291713617  0.6218257560860735  0.6306786252521914
  0.1152297544471308  0.6169504705803172  0.8821956718723258
  0.1226703897248284  0.8803385741053650  0.1211459387325582
  0.1260379220995840  0.8604651934601368  0.3694922411906253
  0.1203082749979121  0.8805675113093976  0.6198847351346323
  0.1048471567510988  0.8913084057921659  0.8678537451702040
  0.3775854255036011  0.1299399935409158  0.1083777957301175
  0.3806099883186589  0.1267970028437454  0.3573424988903329
  0.3755753549934653  0.1228996408198011  0.6121586131083431
  0.3763055580750134  0.1332837862244055  0.8691341882299320
  0.3658447710806507  0.3705218133697141  0.1258073012456533
  0.3635489368877864  0.3579704210026586  0.3796413256764375
  0.3708555545445851  0.3862993648201707  0.6224750191189954
  0.3862118689974251  0.3674518649366783  0.8734155079290112
  0.3874332443897475  0.6287000396935886  0.1249942161848783
  0.3763623715300674  0.6347015595030441  0.3799931496118302
  0.3498999005775942  0.6328454831130707  0.6356230168285250
  0.3573699294166092  0.6160872763672143  0.8768640817964287
  0.3565624604538156  0.8521195398781111  0.1041073913000107
  0.3621737402815312  0.8928639704570394  0.3775517228866677
  0.3577846620778509  0.8771919283011239  0.6356209848650989
  0.3910260082118988  0.8737702426607197  0.8663239516551891
  0.6269862795179013  0.1380898977908795  0.1165701540669493
  0.6197208198518088  0.1283006710830104  0.3598508008790438
  0.6259079809505569  0.1235999473840016  0.6206687690132694
  0.6207912289608167  0.1263910137397748  0.8665535976806384
  0.6246439270502809  0.3814082132150035  0.1180391790644795
  0.6238426789318791  0.3769205188662659  0.3680368611850289
  0.6266234862586657  0.3787513685134433  0.6272705942990292
  0.6206502179694779  0.3639650755035680  0.8784431249363550
  0.6172033753130660  0.6284655201180108  0.1201722126816494
  0.6217301667075749  0.6185340794230106  0.3864575436943345
  0.6251098493454874  0.6321182653047701  0.6317896195327474
  0.6262296319370244  0.6200311482646980  0.8958582384457182
  0.6019220404435593  0.8850764816313075  0.1208008276235091
  0.6184883784550977  0.8691196302921098  0.3737329185770493
  0.6441967825051806  0.8742010826938205  0.6211243325427928
  0.6233537325280375  0.8605093564382666  0.8786725344025050
  0.8872212830971344  0.1338497036405771  0.1149260918152859
  0.8764838921170506  0.1301710900139500  0.3726757687651987
  0.8679126457273081  0.1102260504672064  0.6248464409632464
  0.8538349096346702  0.1284766358596793  0.8707974026283655
  0.8692889694218201  0.3909061046090518  0.1257099194875222
  0.8727843562739125  0.3745353066401448  0.3759425620099930
  0.8874506681747799  0.3818785693376375  0.6330764669008583
  0.8747885675512123  0.3986158510156025  0.8838582331984940
  0.8722600108635949  0.6218937038780031  0.1128527197692597
  0.8766194929550092  0.6083901148964517  0.3754892750897911
  0.8696226033292804  0.6308975709160264  0.6338205910864103
  0.8718129378374484  0.6346190815486749  0.8847032919207922
  0.8788090236796017  0.8869021914505753  0.1064488930585473
  0.8871290094810796  0.8749228302086903  0.3701198389122153
  0.8735750338293810  0.8832083960714852  0.6245325087466445
  0.8732474706748916  0.8680977058090087  0.8561032254713148
  0.2460377007085362  0.0153280714285741  0.1188198556459418
  0.1130259156678633  0.9992162043688260  0.9740860966221819
  0.1160300196781206  0.0056498727907859  0.2196882119521768
  0.1072039874006529  0.9907055608880587  0.5139092589466543
  0.2313836351949921  0.1227383438332245  0.5053551999807462
  0.2565455179464168  0.0084567705692958  0.8642953251720580
  0.1172908457863755  0.9873040091328116  0.7393708192096191
  0.2260412122437583  0.3749658699689841  0.9932618211224931
  0.1101234537243666  0.2651773738674697  0.2404278212102011
  0.2435677633504894  0.3731406719666874  0.2691893802497017
  0.2407144047257870  0.2617944879399151  0.6178138290327979
  0.1145436041048064  0.2423949949006413  0.7323172764688209
  0.2281072280077446  0.3732314092030745  0.7624166170179613
  0.2214344069534638  0.6290936278278931  0.9985602423029426
  0.2443456958073122  0.5092734486095672  0.3819277215283723
  0.2427624386921171  0.6245243113295358  0.2376070307185267
  0.2248067190414420  0.6208620607508623  0.5128154739306269
  0.2423474728110954  0.7460091979385168  0.1196880299241505
  0.2332615199114885  0.7417174545936523  0.3765446873501672
  0.2303604095393394  0.8771060448471073  0.2336736361254853
  0.1122918249969294  0.7499773030204346  0.4920114836149956
  0.4790173774567649  0.0000901164284985  0.3637613708514270
  0.3682200989053461  0.9737464598907983  0.2281378350122193
  0.4975432426798466  0.0196772176835427  0.6183801588843896
  0.3614567131000545  0.9867508454664534  0.5116546282509582
  0.4684576107718236  0.1225451448537582  0.4859654173731717
  0.4939072263813483  0.9840719248619960  0.8704844639118077
  0.4797988089938792  0.2546203885491158  0.3568799359213576
  0.3630293389353741  0.2405963398030894  0.2097486559863124
  0.5009647399096311  0.2425376510988627  0.6172547042992673
  0.3639167010679736  0.2474027314993220  0.7238825839121912
  0.4690658185286518  0.6201661631562425  0.9946969774786030
  0.4877049663946881  0.4863481213433378  0.3743057136787841
  0.4934421792717823  0.5089059119031469  0.6343693908963426
  0.3536202553182152  0.4912495217127649  0.5206121675889952
  0.4817631290162588  0.6200179806052983  0.4882121322210359
  0.3563928270703270  0.4957275439300730  0.7464714414177489