 H Pb  C  I Br  N                       
   1.00000000000000     
    24.9981813575002434    0.0000000000000000   -0.0000000028132052
     0.0000000000000000   25.4549722329332830    0.0000000000000000
    -0.0000034068662656    0.0000000000000000   25.6514895484707246
  H               Pb              C               I               N             
   320    64    64   192   128
Direct
  0.1330516860643283  0.1090728415038256  0.0792967778711528
  0.0613335688796711  0.0570788415134125  0.1042310047714940
  0.0418917339794877  0.0995319660370601  0.1551432624102612
  0.0983444459985656  0.1812287045720029  0.1657218461228368
  0.1525255612797869  0.1871679968028726  0.1229417388626232
  0.1704114184696415  0.1267389731027793  0.3788785736151775
  0.1410242276093201  0.1232362262343716  0.2933112495454377
  0.0751469240905474  0.1057416417800414  0.3099789013747009
  0.0611277241761787  0.0880812116364483  0.4070231086611406
  0.1162341902520398  0.1031566339932736  0.4470921846825784
  0.1541611393031879  0.1267468141408998  0.6535567883184100
  0.1270870711454623  0.1836324402424606  0.5892296937752551
  0.0712324938159924  0.1443467568297067  0.5705152671681233
  0.0597663365811988  0.0608079791902877  0.6220448559738676
  0.1068132381054118  0.0493751152685604  0.6710148225377666
  0.1744447844438930  0.1210929132101326  0.8782957988475379
  0.1362296273860881  0.1179231800234014  0.7972862312659927
  0.0698858690850881  0.1193144800403608  0.8204124191590799
  0.0627524993016515  0.1237473939556591  0.9215612225613868
  0.1249526102016797  0.1259989067757647  0.9532198158753831
  0.0744537707827732  0.3903828929605592  0.0747480701809169
  0.0477135001173764  0.3159794504412320  0.1216225912200986
  0.0989001814110598  0.3219243732985803  0.1674181039855671
  0.1637193300660409  0.3970320163283905  0.1530916109948992
  0.1486516301598348  0.4384297918986280  0.0997698888612980
  0.1002331886014406  0.4120933589679717  0.3332997939888588
  0.0314565474501064  0.3501329699770460  0.3305967942704970
  0.0555782736415394  0.3159935615597455  0.3855026921879260
  0.1374125831777969  0.3520796217930305  0.4271518930424035
  0.1658726181649067  0.4082382365332974  0.3968560317683552
  0.1488095150856173  0.4143264807588712  0.6258733074426159
  0.0934458356672239  0.4177990264604884  0.5532709129759900
  0.0567626062256928  0.3617872062405770  0.5718646484217660
  0.0837891689168321  0.3201807401953397  0.6560284251795191
  0.1385992075906405  0.3498120257173476  0.6885833681059115
  0.1542305695966822  0.3781766705801440  0.9029831840827856
  0.1363202991246065  0.4287994755774349  0.8298362232969889
  0.0808237053487708  0.3901001362713994  0.8110867619430651
  0.0602994865512848  0.3129824012977452  0.8688762488933880
  0.1011276937956716  0.3054645062262925  0.9237061383384663
  0.1489957853032595  0.6331980247508447  0.1499317911825929
  0.1307762466966549  0.6828228850077604  0.0769725204446883
  0.0751179641964048  0.6436928641655441  0.0582153606496014
  0.0546141714581889  0.5677105092056997  0.1175411767484670
  0.0966183252421502  0.5600508837844744  0.1714254929387333
  0.1255353059301015  0.6675448360865189  0.3764910626929669
  0.1516531772726493  0.6173963612009743  0.3038148171509434
  0.1051856073930661  0.5678704181794256  0.3165975835923150
  0.0452652299213052  0.5815653649930015  0.3932648661711444
  0.0566134618921088  0.6385635237316837  0.4305351243567772
  0.1103275111004690  0.6686463647139801  0.6474980154829904
  0.1639465338281315  0.6511455401423301  0.5764416856074395
  0.1273797712733187  0.5943779828651645  0.5580577999813300
  0.0495137839703613  0.5715833216293076  0.6163665145716226
  0.0381351740161042  0.6140722293782092  0.6686063153696898
  0.1491407186183785  0.6575362373038471  0.8714215117889289
  0.0920291213746217  0.6505064682155918  0.8002765365022603
  0.0570800280999548  0.5965224375529475  0.8274861385962631
  0.0871269177078320  0.5663005644832018  0.9136636260891194
  0.1415139186090779  0.6008869381441941  0.9418966468376807
  0.1502458324046996  0.8994265167904659  0.1480510909964965
  0.1091354810307481  0.9229343211622520  0.0694436019809379
  0.0619223689496994  0.8725536518228250  0.0725729483676146
  0.0677469802720107  0.8136439241585857  0.1515623909875000
  0.1183563274383344  0.8287717792612601  0.1966483968658089
  0.1300534083759034  0.8575301101424303  0.4135847844091005
  0.1561735007713315  0.9327596270510324  0.3676441047381666
  0.1034112956378694  0.9283531155105565  0.3233382676543665
  0.0381735254300614  0.8531957252266997  0.3379122766657480
  0.0544604516151139  0.8106210662571101  0.3895542395016818
  0.1482169659995431  0.9112536763824859  0.6155123088802184
  0.1464423949154346  0.8542778014789605  0.5444697418906409
  0.0932615065163629  0.8169653482091783  0.5707125395171362
  0.0578422745017269  0.8453516956728844  0.6557530035275504
  0.0889182715594690  0.9008223652145578  0.6847198955549314
  0.1562351632177718  0.8395331341595400  0.8897272013647615
  0.1095950037962066  0.8114561939278785  0.8159724930687190
  0.0638338349565560  0.8633088363173496  0.8183941461380866
  0.0766012630267350  0.9281877486806772  0.8925751560769656
  0.1304122185495891  0.9132424467552033  0.9349660981959497
  0.4209945968612195  0.1202766334132841  0.1168618655639205
  0.3775198319884395  0.1292361558694945  0.0389865402255429
  0.3128501628983342  0.1285702869866724  0.0664321932134381
  0.3124843682553065  0.1191963651948844  0.1672821359258783
  0.3769384329399010  0.1147144417874129  0.1947219565165304
  0.4008527219918107  0.0868281029305089  0.3569582182986696
  0.3766373203446206  0.1561022963560839  0.3040280555596588
  0.3226768144071142  0.1757553696277219  0.3439897564923414
  0.3086928731106877  0.1201585658526622  0.4248343776030961
  0.3535945065216115  0.0681879935858891  0.4333372870059934
  0.3910923920303717  0.1626478869409688  0.6204342144906719
  0.3217038488990436  0.1564966863058063  0.5611084618934473
  0.2943869362074517  0.0996600817519340  0.5912109488320546
  0.3430814334894421  0.0660959489999490  0.6683699418926825
  0.4000348557613897  0.1018581429766257  0.6879458697244302
  0.4068115979887783  0.1486236619962000  0.8770717853308154
  0.3590968998978941  0.1733999953912653  0.8023399170543740
  0.3124328652579258  0.1228293617007713  0.8089784004571322
  0.3252365061183741  0.0619429161806191  0.8853524381350288
  0.3803019799502174  0.0760809158122167  0.9258012930873774
  0.3690876963134775  0.4212997701137253  0.0906811029346602
  0.2942848137787828  0.3712287690103460  0.0669459666005701
  0.3022120669922512  0.3269440953518211  0.1182896138114816
  0.3797383941094371  0.3445955142651751  0.1790873147298328
  0.4198223631191124  0.3994273833185630  0.1623768395256244
  0.3962525797477592  0.4029827877448763  0.3780368809580866
  0.3416958375566345  0.4186388353490795  0.3061013228443233
  0.3041529552159556  0.3610472648858497  0.3155192987609263
  0.3305833852203036  0.3052165581112050  0.3917294249048761
  0.3853812858864459  0.3286627080580780  0.4286736842799567
  0.4238867996607380  0.3726747428947776  0.6195773357075834
  0.3843560578600106  0.3776864072990222  0.5388746259153178
  0.3188463324679856  0.3837504267316266  0.5631957096821000
  0.3135275520878019  0.3841452814363803  0.6645935436723563
  0.3761333929533413  0.3778043429105279  0.6952378139637969
  0.3966360556881157  0.4004501428658332  0.8508327537228149
  0.3694455993316013  0.3276562532787572  0.8035716183644697
  0.3192868005064405  0.3100212854616219  0.8486455509249562
  0.3116894036633532  0.3683353501802991  0.9275869034835567
  0.3561038078981464  0.4210663610098174  0.9309435417235831
  0.4007636197843686  0.6653618989424597  0.1290924000707141
  0.3394413416667544  0.6849917590713924  0.0635843200920701
  0.3027436599777261  0.6270776065223107  0.0730565367461497
  0.3369218277280306  0.5664249177424785  0.1428624239908299
  0.3942775010230201  0.5882640097717966  0.1767940823269167
  0.3596226654071355  0.6687919910176432  0.3314750390684800
  0.2854268153679956  0.6149062569336080  0.3177603769087087
  0.3007998650691393  0.5737682618194351  0.3706074072517253
  0.3836896847267690  0.5953344810909765  0.4198799446760937
  0.4193432698893973  0.6517879408043162  0.3980225151613960
  0.3921286116436536  0.6636444189863585  0.6154717747719910
  0.3262937181845441  0.6539372663579019  0.5521737840093383
  0.3002089433819876  0.5963663658130440  0.5815349089016644
  0.3457316140785817  0.5652751947198165  0.6611014082059542
  0.4001306090477976  0.6034194910991643  0.6833241538657110
  0.3975301015924569  0.6328118065978430  0.9002903968486820
  0.3772623540891691  0.6816746966670519  0.8272704274882265
  0.3254518762600944  0.6388485313141836  0.8066305174201046
  0.3115700503546295  0.5590409621600818  0.8636182992737064
  0.3519812724176836  0.5552345351372877  0.9192830436629954
  0.3821467452766333  0.8230271588663811  0.1193016133771522
  0.3139249354100248  0.8506442921526548  0.0651887386234688
  0.2972544275563343  0.9053851078886025  0.1045940676520853
  0.3540387929090600  0.9169868706778789  0.1849565057838573
  0.4035962445204387  0.8697354281284437  0.1949927636509403
  0.3913006695862722  0.9197860614827162  0.3718407947714079
  0.3247088080636235  0.9097047451840291  0.3100127385917497
  0.3021647761880950  0.8492070066138078  0.3367208360535185
  0.3520592823898761  0.8166684760079231  0.4137409115802000
  0.4042895091423555  0.8568050954453440  0.4367757897643321
  0.3976537447014465  0.8741542099274237  0.5795283531385930
  0.3322135440447282  0.8087218186405063  0.5745589395375376
  0.2971419704067087  0.8336156154422258  0.6291350955508387
  0.3361185908959302  0.9102375608647564  0.6732199244471928
  0.3949458485745711  0.9370664446612451  0.6450714659703849
  0.4029289406274656  0.9056993188724881  0.8628665679702847
  0.3900189324547762  0.8449715308774927  0.7970621934453149
  0.3303307128993754  0.8199572095405798  0.8253591448381135
  0.3016089201066264  0.8617724529112895  0.9080420823984496
  0.3426996659152988  0.9123014649179584  0.9322770404623755
  0.6644953734298714  0.1118011692233024  0.1166955061363111
  0.6255369395451326  0.1389057846964621  0.0394979774213780
  0.5683956121688949  0.1651230789010271  0.0713081024328246
  0.5674756049462623  0.1587552404862203  0.1670810395896270
  0.6244532954165991  0.1298070855381866  0.1963455925436274
  0.6465367476993809  0.1538061155437377  0.3603545108079003
  0.6249914845333809  0.0806179624865164  0.3109774687771035
  0.5706031505857642  0.0628767837842958  0.3513471096299096
  0.5548737235885862  0.1211127336864559  0.4288562742317030
  0.5973446267719911  0.1754230039935165  0.4350200483436541
  0.6545957793240683  0.1311577227966083  0.6499031372384030
  0.6272880534153656  0.1852302188403840  0.5826253253579922
  0.5719534071202508  0.1450312816476654  0.5661471105605393
  0.5596868415981667  0.0645493052920350  0.6211047803724693
  0.6061960751221495  0.0549264996706440  0.6710601206171417
  0.6502612228063314  0.1572282654826403  0.8875902683131109
  0.5962027718314243  0.1804030012542904  0.8171507114359982
  0.5563732490082477  0.1240196763840357  0.8221217087262271
  0.5807137724558219  0.0612882428615725  0.8949411088378698
  0.6362309463945031  0.0810893345068631  0.9334047979783181
  0.6635127119659802  0.3641330961345817  0.1311972913268906
  0.6416284714080083  0.3824868429356332  0.0453980345714514
  0.5739270832806931  0.3639780344156426  0.0526054097694948
  0.5522636996772490  0.3211918302796361  0.1390465469964121
  0.6020289972790376  0.3242221863966613  0.1866189433801088
  0.6764541570326164  0.3794139552009342  0.3762204609101840
  0.6386226966427888  0.3818630715688958  0.2946558792958660
  0.5722299382595217  0.3847628741907289  0.3177464891217837
  0.5648109546239211  0.3858010171759009  0.4186174423652627
  0.6268394426652384  0.3809838017142378  0.4507581970684995
  0.6440393395116752  0.4169249318164368  0.6187360641561497
  0.5740761722689681  0.4192133334685359  0.5598288124930706
  0.5478112901133128  0.3578798050022225  0.5810413340640821
  0.5971858087556690  0.3137275705227548  0.6514749612886871
  0.6544269486496347  0.3466705555525925  0.6757385685683105
  0.6042531093449738  0.4335630121040206  0.8714228295476648
  0.5240695536408579  0.3906711166124774  0.8710017904626488
  0.5522087032189864  0.3271875808855635  0.8724968749597605
  0.6557963608339781  0.3270057262397812  0.8742051383232872
  0.6844065653955438  0.3903920997566560  0.8735468683653256
  0.6023568695205312  0.6692606079218897  0.0812267068556522
  0.5302753082714865  0.6117562626384125  0.0737303730024492
  0.5537028438859101  0.5700759587202360  0.1234545435878122
  0.6405102846164439  0.5950826507675691  0.1642251853515016
  0.6701741086007702  0.6540861683391130  0.1414291106110243
  0.6684867962498496  0.6268799228765215  0.3657455228851764
  0.6291166778485821  0.6226870933768420  0.2854147915711455
  0.5657194864936109  0.6043056828669262  0.3094369722094121
  0.5642307853814652  0.5865552470621793  0.4070196448667630
  0.6231571590491757  0.6043760206347226  0.4406970170066576
  0.6820112358441630  0.6272392921179587  0.6255705056333175
  0.6331389646916300  0.6357409269322739  0.5504322215196966
  0.5708141924579038  0.6337265860520265  0.5815379715898322
  0.5768653843952357  0.6243153515692603  0.6825892333859007
  0.6428158582840870  0.6209707722990502  0.7061672482956692
  0.6098013575626332  0.6729926269965687  0.8746411846218901
  0.5209748278762646  0.6519033853717672  0.8602455921612715
  0.5308762609798753  0.5841119559362705  0.8720805441047826
  0.6229997414390868  0.5591682368584916  0.9021102486359255
  0.6703215690628685  0.6093208161039038  0.9041521928530117
  0.6325427856037104  0.9189077418695358  0.1141780824993119
  0.5578710308451974  0.8958429322151357  0.0659072342666019
  0.5449787974026084  0.8389016642438649  0.1028020446684145
  0.6098932223674514  0.8210587136628430  0.1766133479106453
  0.6617092024861361  0.8665316207768318  0.1836477205568187
  0.6433738353086578  0.8614020539428355  0.4083661949171259
  0.6527824163568825  0.9383258171043898  0.3597040617556581
  0.5986835268817127  0.9235496022269997  0.3187385910228900
  0.5504902623777690  0.8390286317919897  0.3376446797217302
  0.5769197770264269  0.8008662564954230  0.3892966828462089
  0.6529633546517714  0.9149998266515394  0.6401545918238537
  0.6001456587343833  0.9352234655494763  0.5674263537546999
  0.5599932675899870  0.8794364633451346  0.5747333039646226
  0.5841059002485975  0.8187128690103652  0.6486593665675499
  0.6385549271962684  0.8397591050849135  0.6878055217514946
  0.6837965449431118  0.8730880215863294  0.8756695084830298
  0.6357923952171624  0.8757675959573693  0.8000590461128070
  0.5729854915353799  0.8778712610721013  0.8306647027163220
  0.5780428787596282  0.8763727138620828  0.9319656943620362
  0.6438178960950538  0.8738839404653619  0.9565536152680950
  0.8890113710524339  0.1668814838320618  0.1216383133781701
  0.8930274876186499  0.1080491396299071  0.0518194051867953
  0.8410174398023870  0.0687485060629620  0.0768666857982388
  0.7998446283162810  0.0975763688568557  0.1591165758944202
  0.8276256321947465  0.1544413160314984  0.1887808098364655
  0.8946631282989627  0.1343753860170657  0.3290905310339712
  0.8183915565478141  0.1849210769317433  0.3421136964794707
  0.7983067258401352  0.1489477576571554  0.3975711806855954
  0.8600712598689022  0.0758145831419722  0.4251614271885898
  0.9160251621070379  0.0656960059044624  0.3855043994302740
  0.8917363634306181  0.1667547027114597  0.6214857545066734
  0.8240011352602136  0.1538140913056733  0.5615178242498390
  0.8011840331322283  0.0955462481042182  0.5922340180731497
  0.8515410380496055  0.0675376259975055  0.6712886367117570
  0.9048274891205913  0.1079646597562466  0.6904289081692266
  0.9026795460526552  0.1450416978551539  0.8861865529590734
  0.8598475759439775  0.1769246793877714  0.8112455799578846
  0.8112778722656065  0.1276659509096291  0.8117119749278567
  0.8187152895346108  0.0602191136891511  0.8838004255786628
  0.8712279615235557  0.0699456518633713  0.9279498602982336
  0.9046931150220856  0.3720979548585549  0.1552142742137004
  0.8850889385723011  0.4328791738190898  0.0913160321239477
  0.8284581212033904  0.3978751503607637  0.0684524155674339
  0.8082586681118638  0.3131261187900082  0.1162957389280592
  0.8522468543020956  0.2973219106714682  0.1667745010264821
  0.9150490256451621  0.3733328392115731  0.3727900713716134
  0.8673900228695109  0.3636527871772605  0.2969832652815922
  0.8057508008595889  0.3531216059955363  0.3291088610100112
  0.8103120933291621  0.3606628337459643  0.4287627848060722
  0.8758443308810322  0.3692887557024397  0.4530700000359145
  0.9062645316992122  0.3850549104192148  0.5779335685732041
  0.8351751351197807  0.4441001566851661  0.5772130820712315
  0.8051710380559913  0.4161096937635090  0.6330165564414015
  0.8536603623868169  0.3405759677182992  0.6733614220549881
  0.9128288521075686  0.3207203693311067  0.6416816065256062
  0.8969341673764510  0.4116745183900325  0.8669608118911658
  0.8337124997046894  0.3943579612884979  0.8034120184747094
  0.8088669087607633  0.3379856473995566  0.8364500435020413
  0.8533819196651241  0.3160479073324268  0.9209567887357071
  0.9051937870558276  0.3581961705183881  0.9403590813880003
  0.9037725404170456  0.6657097783590138  0.1215702511306614
  0.8395531377895448  0.6627924017459030  0.0561330225962882
  0.8096279107377929  0.6049728171467712  0.0814375470442113
  0.8514816539939191  0.5671094432693560  0.1605728615262072
  0.9059899469907225  0.6021462533217272  0.1869162313293374
  0.9040029067301064  0.6308037570195700  0.3449037673291809
  0.8616807368945150  0.5516776662497904  0.3231794193447403
  0.8113936799332550  0.5592105618325137  0.3695697102195746
  0.8162203680176209  0.6428929872488774  0.4239255045686224
  0.8703641639286640  0.6847751210688159  0.4089144715265273
  0.8923028281427559  0.6586686664921054  0.6283692586554713
  0.8327767585976019  0.6632164904763874  0.5588876963724621
  0.8002589424913417  0.6041169141281401  0.5767972906186042
  0.8339342949626833  0.5595953380678143  0.6556614356124568
  0.8887012387490715  0.5897530527513613  0.6876504043462945
  0.9040807942974535  0.6238789312784476  0.8989368694886041
  0.8792163856480194  0.6927728743121063  0.8460698282689670
  0.8251875538192800  0.6573188014579237  0.8175989489488418
  0.8136344139582310  0.5652098154460553  0.8486826613825228
  0.8571279850422031  0.5445132245092313  0.8981641611923042
  0.9079450616231853  0.8670485199910313  0.1545104331918067
  0.8754580687170752  0.9293919221104225  0.0971000719930973
  0.8199051643726757  0.8909365194154102  0.0785202412186356
  0.8134020177638993  0.8019919770696723  0.1215804425311318
  0.8630654982457552  0.7874024347810441  0.1672322211978518
  0.9024170987988426  0.9203692760782038  0.3903673428653714
  0.8453295057599807  0.9358106847337018  0.3198467133812040
  0.8086139141085089  0.8781075648630813  0.3304666721095704
  0.8372792566762405  0.8226564882694428  0.4058152735756997
  0.8927367389240335  0.8467219597609398  0.4420489343262946
  0.8554092057744156  0.9228461360831068  0.5885121623774496
  0.7780716387705253  0.8725763605760295  0.5789027820840463
  0.7982389527937500  0.8252774136485682  0.6242965327075695
  0.8885834041651604  0.8397896048501698  0.6650866519086552
  0.9230696120583871  0.8970003060950767  0.6444412006278554
  0.8976049755459637  0.9106593910323969  0.8713663042909863
  0.8889511043779316  0.8543145708632293  0.8002905908415917
  0.8345376533281541  0.8202049913069865  0.8287763399308312
  0.8078229465692190  0.8469897959695770  0.9163391051521120
  0.8416429157226908  0.9014674133149853  0.9437674498419101
  0.2334527507585314  0.9985497050525221  0.9938003551511309
  0.2291121110487958  0.9971814093389501  0.2426922350049562
  0.2301694609929614  0.9957465597974385  0.4930090732367989
  0.2354642295374388  0.9923970398994618  0.7438370509711946
  0.2329015428442727  0.2471610417288166  0.9894170550671437
  0.2320153892096579  0.2477811719670439  0.2415559181737798
  0.2281049563707231  0.2499073603183495  0.4954810239135277
  0.2315436563581875  0.2473940430066146  0.7397737690815239
  0.2307533684647129  0.4990106414578807  0.9893378303791082
  0.2363560629092748  0.4968475406704052  0.2395999631227491
  0.2338178429267699  0.4989563875500818  0.4900839944509672
  0.2344671855943376  0.4997185688435079  0.7394528620495109
  0.2275621053101898  0.7490856838193416  0.9906786800670978
  0.2337354856928278  0.7496932808902367  0.2403044442010971
  0.2295143425808452  0.7452777077748166  0.4855412135956206
  0.2367989306354640  0.7456151741584681  0.7367483327358763
  0.4836119376670425  0.9963373786830257  0.9963826172490817
  0.4815594630676832  0.9955075411933427  0.2395233441061102
  0.4818974462466278  0.9985377368565096  0.4948791771432426
  0.4844810684773811  0.9961002358835616  0.7480139765805918
  0.4806582152126233  0.2479038139323281  0.9912201708869294
  0.4796522367519966  0.2464896426656996  0.2517018860922894
  0.4794931992285724  0.2456810634727601  0.4947966540556407
  0.4845994461682979  0.2493226466857874  0.7422673633262769
  0.4852609697517248  0.4947006024421947  0.9972697593441310
  0.4877713906369858  0.4959766245147869  0.2469818807757213
  0.4773244890799490  0.5011029923089917  0.4944005408159609
  0.4823318792143310  0.4946030324243490  0.7387690181827219
  0.4799725323500656  0.7467812200247456  0.9923187282946856
  0.4820248071060442  0.7441739787833340  0.2459711574428316
  0.4858106079920153  0.7460953801908128  0.4963487246158212
  0.4856389381464818  0.7473596110394211  0.7422393157122518
  0.7280092480001291  0.9963258083333151  0.9964576441923033
  0.7346220808985819  0.9977654344090020  0.2439310358951379
  0.7314230226160271  0.0023312354623170  0.4926859761328149
  0.7349899992892566  0.9979451401704411  0.7458306567462408
  0.7292660965398563  0.2483773245155957  0.9943733442282565
  0.7243306553997770  0.2479314013261089  0.2446468347291163
  0.7328518142987605  0.2502158478202098  0.4956529868619950
  0.7323413399291724  0.2452481602111764  0.7413091064412061
  0.7363346312347783  0.4994098962012858  0.9962906341805589
  0.7303574324283749  0.4999752068040841  0.2412866838917508
  0.7277811471948432  0.4995716996365973  0.4917688013262619
  0.7297758200170679  0.4944597072726241  0.7449128596671976
  0.7310338419089767  0.7442495174560912  0.9944996306644149
  0.7360028227085281  0.7476857772097910  0.2481177576100592
  0.7282803338865833  0.7559548806817028  0.4942931928898310
  0.7307175662596125  0.7460114866840517  0.7447667875974443
  0.9831014765705322  0.9906423263290959  0.9961081786810551
  0.9784646974091600  0.9881332969139993  0.2440976939153263
  0.9846561600703092  0.9923335822501290  0.4989459038877017
  0.9818084489185175  0.9962987449965969  0.7487459478735369
  0.9800160185867415  0.2438805047436238  0.9957181193507633
  0.9803400670554516  0.2387738163808715  0.2481071209164795
  0.9786916495692731  0.2424080218917768  0.4944012930738383
  0.9862051024060872  0.2473028853472193  0.7466715568775525
  0.9860078299762729  0.4957766740264193  0.9932960920715376
  0.9816056175742853  0.4909237706125537  0.2448471090799540
  0.9792448027452023  0.4976585950792951  0.4950267987093669
  0.9846485217295257  0.4894867414872444  0.7430937420675724
  0.9821463959242908  0.7441901614027951  0.9919641150790105
  0.9850352861053385  0.7402724643130384  0.2486398403266945
  0.9803691860438691  0.7432967272418448  0.4981847932613334
  0.9811963085732950  0.7431252867326880  0.7443593187976588
  0.1074264843626565  0.1217497422495425  0.1118217149989877
  0.1289419450194744  0.1151915011007398  0.3705963605109672
  0.1183855837678628  0.1171314992871028  0.6304440242119569
  0.1306261272134755  0.1211606721406540  0.8752816094384887
  0.0974319055424810  0.3780671999901472  0.1092194622837628
  0.0986643143693560  0.3807149815905354  0.3627547801066081
  0.1172015864103375  0.3847381368650101  0.6211434493593188
  0.1206289166342226  0.3674886876685891  0.8773919064922084
  0.1150585857719738  0.6222168131668430  0.1248861551921588
  0.1055346538376689  0.6301063831500300  0.3680146541019499
  0.1015688068573352  0.6341163916882253  0.6231720852371394
  0.1181761234412668  0.6269538131422228  0.8711089508036571
  0.1157918042051796  0.8768397629582071  0.1336995125271380
  0.1059304627411254  0.8710037183744890  0.3802923226626140
  0.1189564934069545  0.8790906401507991  0.6146489951846515
  0.1215873243730285  0.8622485620554574  0.8759411305585805
  0.3770944621711256  0.1216292499591901  0.1168283945721284
  0.3664642392310163  0.1114731624017131  0.3679203203950506
  0.3620138720940227  0.1305592729890908  0.6241810411479207
  0.3714806879491711  0.1258522456249386  0.8650498049108555
  0.3577195207007876  0.3868441211798884  0.1140759584519990
  0.3644264653261832  0.3749019195860588  0.3683133912071986
  0.3803571902252308  0.3777005689544439  0.6171299932290801
  0.3640087205405785  0.3757715509939160  0.8659003522791728
  0.3681744096439306  0.6376378181228588  0.1207256458097926
  0.3526654470050675  0.6349844901021813  0.3572918689068821
  0.3642559919928601  0.6304084651680854  0.6177876588831787
  0.3657883458390674  0.6191089806592528  0.8738520673711777
  0.3592272972167264  0.8584249614511653  0.1295994933630807
  0.3654284851777224  0.8848811663131066  0.3731999210645745
  0.3650077126318175  0.8732270463774661  0.6082993355391466
  0.3678132575544521  0.8797709853528184  0.8642484259058242
  0.6253742370709161  0.1315010744730653  0.1176886635163532
  0.6128424498554134  0.1289046423722905  0.3723548419449284
  0.6189059679562547  0.1204528342722186  0.6271808073057343
  0.6173383826370824  0.1312153682303557  0.8758568053234388
  0.6227926807065917  0.3562471969744375  0.1171434101908603
  0.6328035226285795  0.3823745105159116  0.3728074699824120
  0.6154201123464711  0.3841889311280373  0.6176508431686470
  0.6041829364463392  0.3904384497780830  0.8722662383922648
  0.6003747113047853  0.6344708112000040  0.1066589550635684
  0.6264108412379976  0.6147608471945236  0.3631401581817193
  0.6382620533898308  0.6280292330178340  0.6282541202439833
  0.5968701645302892  0.6320227456755665  0.8788892135041323
  0.6104130185693155  0.8830993521566763  0.1244877761238378
  0.6154523883088483  0.8693064571013035  0.3761499426992950
  0.6201714711012417  0.8885913682251411  0.6288577503827606
  0.6400144054399025  0.8750097621901324  0.8781909751743343
  0.8612400802842921  0.1333328462847529  0.1202320147760451
  0.8682836409351591  0.1258318786699924  0.3622589034957744
  0.8655030316294232  0.1323930349757854  0.6255137054256766
  0.8673669278284385  0.1244973180539869  0.8706793109103587
  0.8699132163268988  0.3655661537066036  0.1297539260544678
  0.8716561158645076  0.3669155526818854  0.3750686374818173
  0.8753822358616283  0.3826848434302085  0.6084205065218815
  0.8703959970444963  0.3776068471558887  0.8715110131720211
  0.8743032387988209  0.6336056977924779  0.1212092497375470
  0.8677569854587074  0.6186066647458801  0.3660183486479688
  0.8621422120750409  0.6277111263722244  0.6234367433413601
  0.8700470888783928  0.6187742312157345  0.8723103506421293
  0.8711734910585146  0.8587369300558069  0.1325011484023847
  0.8703021567811946  0.8922215078174649  0.3816085963564535
  0.8506519645029845  0.8865943651616646  0.6114315250875467
  0.8667807860780534  0.8798107400355036  0.8718139226483134
  0.2425063870588123  0.9945363901217902  0.1211272872887604
  0.2250907687514048  0.1232206548790789  0.0007757661244402
  0.2278189398830467  0.0052535584837039  0.3709362618765368
  0.1034662671244006  0.9874758086672540  0.2346144940338723
  0.2295261028198600  0.1233022608840307  0.2389784310194471
  0.2455806883370848  0.0088101448001800  0.6222841863904645
  0.1077216715228261  0.9972151274339962  0.5181978088586517
  0.2211316693076403  0.1243079686506736  0.4878269742390388
  0.2335860083589452  0.0084604769176888  0.8721553747420806
  0.1092697195993899  0.9797699221599533  0.7474910787242660
  0.2258321091865773  0.1193971406108761  0.7449265930311533
  0.2394670445637953  0.2408564504494179  0.1172140882552873
  0.1056445125099051  0.2433518486865525  0.0048549031212503
  0.2237753669865442  0.3730548027998412  0.9924994172213957
  0.2471812632974256  0.2462312346346058  0.3669893654296220
  0.1050694146270390  0.2530217657369905  0.2477104372009557
  0.1039892419861895  0.2605238083986161  0.4762362195634013
  0.2316711104579037  0.3749632703861260  0.5056674033727797
  0.2374554095071598  0.2482429462231547  0.8658442309894427
  0.1087627955928518  0.2499395440402076  0.7609572181259984
  0.2308524373016228  0.3719980061620357  0.7334974704431576
  0.2478348610901003  0.5083271746741693  0.1181323059031051
  0.1102965427971274  0.5000419167288168  0.0189129288781410
  0.2348553235422581  0.6237963059097690  0.9836404588486389
  0.2204523179623728  0.4897858649425355  0.3673410374993415
  0.1084934398309307  0.4877571593299500  0.2434342981818459
  0.2277175177109113  0.6224280742747975  0.2351146262485067
  0.2566092947457680  0.5035729934251382  0.6164874376108982
  0.1072210547758796  0.5057414464637284  0.5059845820227373
  0.2295953439760665  0.6228952391955527  0.4731353080186100
  0.2212592909344570  0.4900625492382056  0.8670890908589908
  0.1085133478596971  0.4982283575582519  0.7314052800554447
  0.2366137790836888  0.6223592770120935  0.7555580477697771
  0.2124854027247499  0.7436341831623061  0.1107634117547299
  0.1054791530431783  0.7427281173349829  0.9665797776476350
  0.2173499825397910  0.8750069907565171  0.9910019848560699
  0.2574642750064457  0.7554670116682473  0.3611735711644812