H320 Pb64 C64 I96 Br96 N128             
   1.00000000000000     
    24.2328986667043367    0.0000000000000000    0.0000000760837088
     0.0000000000000000   24.7800986732749493    0.0000000000000000
    -0.0000032208396694    0.0000000000000000   24.9858365952322927
  H               Pb              C               I               Br              N             
   320    64    64    96    96   128
Direct
  0.1024869446935335  0.0502367112944484  0.1255009152400169
  0.1852676603232870  0.0952966125653383  0.1243404659026743
  0.1540538382499617  0.1600327101858991  0.1240952313491301
  0.0486338951255375  0.1592865927432769  0.1253581615927870
  0.0198513424806196  0.0934083864151239  0.1259527873068212
  0.1754874962873295  0.1177842391250450  0.3661843646697686
  0.1260168777379859  0.1222660541086601  0.2889352620470171
  0.0614915206718504  0.1292167134952694  0.3201576356531355
  0.0680315394898540  0.1315208229239509  0.4245872100017983
  0.1357479926212555  0.1244899663022231  0.4490988484674095
  0.1487179820219791  0.1677574947155024  0.6243431369537499
  0.1562531231940782  0.1006534749999764  0.5596216512246948
  0.0997686152193130  0.0636933021224297  0.5855827979187569
  0.0520477291988313  0.1036656013798621  0.6634687241687406
  0.0806118951715365  0.1649742142156162  0.6886043126004018
  0.1909552467766655  0.1186973124409863  0.8769557906759274
  0.1416739753698875  0.1241265164965915  0.7991111084923734
  0.0768995138596610  0.1297843767868775  0.8307611163902056
  0.0824070569283465  0.1264432996134267  0.9343617635797085
  0.1502686120488699  0.1211516868184516  0.9596796280038711
  0.1044714097310427  0.4447686329760652  0.1191360318656500
  0.1088000396226816  0.4054728638890832  0.0356965736739476
  0.1077481370648640  0.3385526305495370  0.0609790023685906
  0.1021023649662036  0.3317249201536456  0.1633806216156834
  0.1003292567323559  0.3950287034116299  0.1957298465126341
  0.1471618969832778  0.4155771166022571  0.3695371415015584
  0.0728188118109453  0.4142524140280984  0.3104761770776434
  0.0455222189056543  0.3541178032299483  0.3379268356593024
  0.0978350186421266  0.3129319589688313  0.4114686658581871
  0.1571851036316957  0.3481613507358819  0.4339094062658158
  0.1849839385682319  0.3706068683411273  0.6193576511149279
  0.1390177696148550  0.3809006330798703  0.5405938357144126
  0.0745921215314844  0.3948444906271167  0.5705599879990021
  0.0766605309940081  0.3910233033405346  0.6741091561938831
  0.1426393386536276  0.3780492223568715  0.7011552831276852
  0.1575536883547005  0.4226277228426290  0.8792533628683777
  0.0879233432283356  0.4273171733454892  0.8159935860346978
  0.0572111556095515  0.3660820735927794  0.8371826769960036
  0.1046682766454700  0.3178644953880604  0.9102514432129369
  0.1637810748736926  0.3504624391513409  0.9380655408508708
  0.1771947398006678  0.6167350064035155  0.1148859330614580
  0.1277312747060278  0.6141801031034524  0.0375009388279496
  0.0634104350263173  0.6254426555141962  0.0681858071302969
  0.0692205818115084  0.6357128024405092  0.1717287839037278
  0.1367842768932904  0.6317351034575480  0.1969874189177740
  0.1516222154215609  0.6458285848757542  0.3480025538711094
  0.1060589143629046  0.5723552082405567  0.3101961425984764
  0.0535535916216902  0.5718762299196434  0.3577691308105632
  0.0610272601651408  0.6428692344680741  0.4304759938497463
  0.1179519953643661  0.6863439698899603  0.4259448041476288
  0.1537825130386327  0.6725990526475812  0.6230118040310665
  0.0821797136903849  0.6741689263065188  0.5610524454955576
  0.0536773100850530  0.6129946937807451  0.5843071473116458
  0.1027948002236140  0.5683742786639705  0.6584329878189312
  0.1614473666469504  0.6022315606553705  0.6844264405462642
  0.1215900016866801  0.6703973855218054  0.9036891695716954
  0.1777630343117627  0.6377031962701538  0.8368399131281182
  0.1337464457230684  0.5831165206995196  0.8209687753319311
  0.0467914688797465  0.5766170859045280  0.8776257048908369
  0.0394518947623426  0.6264245964197964  0.9263929651494914
  0.1560138595240635  0.9185313884930134  0.1229689352311925
  0.0974313573088447  0.8976879991091529  0.0529491621353212
  0.0741552724021880  0.8369882479053340  0.0833803838592002
  0.1143650652293017  0.8160289179784024  0.1733851521908532
  0.1626692982606943  0.8625862998652000  0.1979261395611523
  0.1372586404736175  0.9244711461889167  0.3462190305852062
  0.0552485686148843  0.8927751923793058  0.3098321640298952
  0.0507092176589270  0.8377219904807889  0.3536656067277869
  0.1283861989429542  0.8298304649756422  0.4211600726834464
  0.1796877328857336  0.8789693546082039  0.4176187868646405
  0.1049912955537838  0.8138100931383103  0.6187656009956355
  0.0643618690910234  0.8713813068949263  0.5563514222881198
  0.0646402832106939  0.9268024247760999  0.6000967441648468
  0.1062607844566560  0.9104857980474673  0.6916381392864323
  0.1270414841892619  0.8435317424357819  0.7034658110124679
  0.1355292625363956  0.9175737323569757  0.8640724573991558
  0.0584010484335974  0.8898259499529680  0.8180876085796793
  0.0490427647083278  0.8309882750766079  0.8569138094093687
  0.1188899678611480  0.8174992505245454  0.9307837603772707
  0.1698711805718477  0.8672109686546803  0.9368521643573567
  0.4087378948944366  0.1491777895270371  0.1474259867026605
  0.3695868434093694  0.1765086968219296  0.0656156533105462
  0.3205668873849628  0.1250717181666139  0.0658743420624189
  0.3229930328458565  0.0616834102087015  0.1442070996481347
  0.3736121860894445  0.0745370368805579  0.1928341601402029
  0.4133476088966593  0.1561198054794153  0.3913246424053911
  0.3649392400318955  0.1901790106100811  0.3173317586260795
  0.3148872066423272  0.1395717243800358  0.3197750538464473
  0.3264611967667084  0.0693995705662750  0.3920711108630234
  0.3831891872580481  0.0784133872876736  0.4346287961301386
  0.4003120499301925  0.0818932402537146  0.6178516816684866
  0.3326041650624795  0.0993963260752780  0.5547990463296545
  0.3076588869177411  0.1569323444024208  0.5893493184191881
  0.3554635613665729  0.1789516809711476  0.6754415510117721
  0.4100712242242214  0.1362632680776926  0.6932556286475891
  0.4070223220676043  0.1664791663783509  0.8797058210452505
  0.3431483132536522  0.1664336859661404  0.8100496181797781
  0.3105834002229523  0.1070325992396487  0.8327391698498482
  0.3472612894407531  0.0671683988003628  0.9163648808296280
  0.4048480211905925  0.1000650852411112  0.9454859625884896
  0.4084411900416620  0.4053636667976674  0.1103270382195852
  0.3933012433873973  0.3226431796209231  0.0692994995863539
  0.3354370982929673  0.3072628871357804  0.1092802064553356
  0.3121721888193390  0.3755713502120035  0.1802223139892871
  0.3524799163271384  0.4339803529889464  0.1812905600587340
  0.4095344992837782  0.3736902376741734  0.4025499718306425
  0.3910994721027449  0.4360959545649492  0.3365468522073956
  0.3311656950518926  0.4017170975665289  0.3140621160678020
  0.3067008679695503  0.3176891707491688  0.3645401587225896
  0.3514549303135511  0.2994618620088862  0.4165522809721563
  0.3999948098870470  0.4164339889408390  0.6182966066714570
  0.3467551937352255  0.4047897138080318  0.5416096975650116
  0.3134291388429012  0.3470811993925585  0.5669875343336676
  0.3406307742991790  0.3179420038939411  0.6580140482240172
  0.3925181704421788  0.3565744793942082  0.6899508372190157
  0.4208953308060146  0.3769690636249537  0.8721444101864745
  0.3695843432374279  0.3755057848809016  0.7963318018116095
  0.3052898508872621  0.3782441229065223  0.8292197494765112
  0.3141093120819344  0.3792334999936949  0.9337384895002711
  0.3830298788994347  0.3791011734500476  0.9559336396734708
  0.3975434178145566  0.5758251887183504  0.1153439418280979
  0.3959729719021166  0.6418505093346183  0.0493200986187213
  0.3411246098344926  0.6775940280513286  0.0800144689593174
  0.3058481212275239  0.6398360185717508  0.1651223997339792
  0.3368438569073167  0.5792685042259199  0.1872634105824614
  0.4260898983075243  0.6324523860908081  0.3776530958889520
  0.3854206343594639  0.6182708200433900  0.2964206817223828
  0.3173717505924765  0.6200868530155264  0.3211786866891057
  0.3115819653946644  0.6351803720518278  0.4243298352116543
  0.3762417152739609  0.6428808605221477  0.4548671354536523
  0.4081788973210741  0.6488072943508789  0.6085065508181037
  0.3800745270279260  0.5731400251572860  0.5614811722236384
  0.3237269198030449  0.5598587032106355  0.6038707766363383
  0.3117319546371781  0.6252477146808273  0.6809995756337051
  0.3606668932112422  0.6767394281667509  0.6855187232769759
  0.4075767424556667  0.6586275022124725  0.8508724135695181
  0.3844944730939543  0.5885633821500782  0.7935537148382086
  0.3298371387767967  0.5656893396089514  0.8345736147305840
  0.3120740807964741  0.6200741223959254  0.9173153544306892
  0.3571024709790921  0.6738382694089945  0.9291945735784606
  0.4052877959136324  0.9061445121646421  0.1203697918970656
  0.3840512415025929  0.8360267288713288  0.0645533275783093
  0.3305253645197841  0.8104899662434242  0.1056898819451512
  0.3147523231349793  0.8642689191155303  0.1913430458692545
  0.3574572063330311  0.9202979679454547  0.2005606356903969
  0.4107946135480521  0.8758344072006568  0.3382878887317253
  0.3517439648539034  0.8029998501978627  0.3268587670641617
  0.3092236300752683  0.8208510511195847  0.3806700130891175
  0.3374379017216479  0.9044826914074956  0.4307526859557014
  0.3971332814425975  0.9383187412837161  0.4053888536776865
  0.3989056690118436  0.8925526187874155  0.6520155786526483
  0.3622090308076584  0.9313692105222329  0.5738809469763680
  0.3152280345887606  0.8790996060994918  0.5638879830992757
  0.3142941258102218  0.8057041850647083  0.6341488978253146
  0.3634080460042606  0.8116327470860804  0.6852804254028481
  0.4088024105777631  0.8414237395716621  0.8498630564375222
  0.3839290705216306  0.9159982998538941  0.7996161144287428
  0.3313358370361150  0.9359713435549880  0.8443651578403883
  0.3168242499493139  0.8737504458038463  0.9242798759814194
  0.3622120137251900  0.8194026244609398  0.9283689115022884
  0.6606066207181964  0.1593200271144264  0.1338258781467744
  0.6036608243951205  0.1627476093144021  0.0592570675255725
  0.5607982357270096  0.1103224092501632  0.0817764019942687
  0.5870600634132340  0.0688361779113595  0.1697666891134778
  0.6445019421946329  0.0983510882256888  0.2024272879020820
  0.6709892084918622  0.1289815692145649  0.3549199632549604
  0.6067669264859921  0.1719895881178190  0.2998140200456343
  0.5562407147056677  0.1735199383333932  0.3495761974229052
  0.5802579729258899  0.1305380250020307  0.4371773896302733
  0.6498261837068751  0.1107664437803952  0.4441722962640537
  0.6579716883622424  0.1753798337834295  0.6263484331880875
  0.6636040726655595  0.1052217619693545  0.5639425108520340
  0.6032855757505019  0.0737322679687567  0.5884657803691061
  0.5544888524677301  0.1193029817990682  0.6617557514783660
  0.5851984717151862  0.1787832143782200  0.6871312580144118
  0.6750269167152135  0.1144255094565691  0.8721846698186559
  0.6294474686994874  0.1240726565874567  0.7923267934918501
  0.5631485389019975  0.1228707551968795  0.8206986981755099
  0.5635337583841011  0.1103655956159121  0.9246464223250666
  0.6306272438069552  0.1069084319858535  0.9517359553395094
  0.6569229306135745  0.3857228365594319  0.0928909117035077
  0.6182699657405335  0.3031454515960577  0.0687653112958541
  0.5650092513982438  0.3071945492674862  0.1155395948472187
  0.5646230111998600  0.3916556006479160  0.1734976881357298
  0.6178923623108796  0.4380040714643916  0.1606374123791489
  0.6731264966158844  0.3689404016760471  0.3652588626912383
  0.6186375510973969  0.3765057682192008  0.2914847070828884
  0.5560553653708110  0.3728619599965893  0.3266472506107311
  0.5684118996567968  0.3630304332527531  0.4299022844122570
  0.6381587090043981  0.3612570357013525  0.4501348361223902
  0.6548097062950191  0.4052557975798136  0.6320266827008540
  0.6126082658888345  0.4333193059005566  0.5522049674744025
  0.5634461155916105  0.3817433212283912  0.5539191450121914
  0.5674018373800181  0.3187228476399678  0.6320767555703281
  0.6196108331524023  0.3303296078166664  0.6788134374579742
  0.6537193992482820  0.3459532648951413  0.8493258193803896
  0.6102081208157412  0.4209288272148079  0.8093415745929157
  0.5619921459335044  0.4273571848586509  0.8608085686092370
  0.5692996086785647  0.3606359182748588  0.9360324585874066
  0.6213450980794075  0.3120164580122782  0.9305750477529039
  0.6674115600999802  0.6294868608936314  0.1093990111600305
  0.6126798412666399  0.5811779215061873  0.0508312347112490
  0.5582910742628070  0.5738236429687911  0.0967394925453937
  0.5724349437728204  0.6198640731204861  0.1865140709016947
  0.6382080165091151  0.6477548014622468  0.1959646093565970
  0.6508197892961690  0.6144400517375488  0.4116678143162156
  0.6566244712388598  0.6920681273279760  0.3590984536680276
  0.5977134906450428  0.6752605948162426  0.3215590879577135
  0.5523078235515879  0.5873664894922398  0.3439503533112413
  0.5821597273470314  0.5507789036052280  0.3974919811261289
  0.6775542285409358  0.6243004118320187  0.6195433132442081
  0.6323995108018020  0.6266752331687211  0.5397438529798511
  0.5659756738307072  0.6335015988343733  0.5682973524048599
  0.5665261620607889  0.6366424880970396  0.6714260908454300
  0.6327267888189931  0.6301252642770684  0.7002980704165340
  0.6567755391179746  0.6452197177035400  0.8646916258020653
  0.6248249084397394  0.5768832682526190  0.8097991058339121
  0.5657998454542090  0.5642237168754989  0.8489820688170819
  0.5548871819047705  0.6241751319564700  0.9305716892683732
  0.6078291414770045  0.6706215941902302  0.9412614523146052
  0.6466580868790726  0.8264149899764645  0.1390261389973174
  0.5887947358137507  0.8379444277608930  0.0657632750040183
  0.5570258758955228  0.8958690896949711  0.0931080702204342
  0.5895460934862288  0.9247115456178743  0.1819251450776042
  0.6431884504933311  0.8864019850741016  0.2111077399201115
  0.6564733627495827  0.9000875786767734  0.3598655492844036
  0.6262608480767988  0.8206614640815465  0.3184331176499943
  0.5720418289281958  0.8113666154143174  0.3637536550064566
  0.5628651421715593  0.8800431066719002  0.4364682035839805
  0.6095723887454499  0.9334890959149331  0.4357779367584287
  0.6598929953726234  0.8952812944159090  0.6588153220402591
  0.6297352632123969  0.9366500367267315  0.5804330013103255
  0.5762265771204811  0.8900415451603845  0.5699529169254489
  0.5696085761161450  0.8146264381935530  0.6380004604557088
  0.6157870751892687  0.8178392781907160  0.6914301028005767
  0.6617832795490940  0.9012129692756237  0.8783016310580424
  0.6039972625485537  0.9284566157701408  0.8080193973874249
  0.5598046401481650  0.8733926104102068  0.8155054017256809
  0.5841633006802428  0.8072057146153778  0.8880939720917436
  0.6434950752238273  0.8232060365819244  0.9259276143665023
  0.8888533805680287  0.0658127608680151  0.1127272545653789
  0.8965907955679833  0.1287753182888118  0.0434437500654079
  0.8487761389760725  0.1731188568958519  0.0727572872864736
  0.8067844256350091  0.1438975492639688  0.1583183200677571
  0.8303125248481839  0.0808245571138639  0.1838695027744602
  0.9242911569166670  0.1182554651410443  0.3729012709498553
  0.8820609762609131  0.1197404483971788  0.2917623725493698
  0.8143149630308287  0.1166413140368272  0.3175257503624013
  0.8113705840016088  0.1144026092301250  0.4223173872084360
  0.8772845142618146  0.1168885887053159  0.4517092260600901
  0.9087134408979762  0.1395690596400220  0.5987477969320856
  0.8658566631752462  0.0565533536432571  0.5780985752656540
  0.8191174916696368  0.0620982476191753  0.6308010147657414
  0.8260832198684526  0.1450842965566892  0.6879671466840149
  0.8779215680854336  0.1915817352189318  0.6690357797783744
  0.9068533697728286  0.1514080257953662  0.8885981481029021
  0.8491348724043343  0.1859166829936339  0.8214658624780899
  0.8047858220499261  0.1302722047996582  0.8234435116678177
  0.8288760086171397  0.0571909945402310  0.8902638491009065
  0.8893914491005528  0.0689280613786446  0.9275405696057956
  0.9219162064361357  0.3744375839224569  0.1270543284327056
  0.8910137514214616  0.3737349199563921  0.0394983220619617
  0.8204751328449618  0.3754301590302208  0.0573092266358076
  0.8028141675142735  0.3818600192909593  0.1585930193410616
  0.8628867637011971  0.3790614171369810  0.1979662090795825
  0.8999572914498821  0.4050155576381678  0.3533409301465188
  0.8725470824802948  0.3240283997177991  0.3137534071292893
  0.8207185500610099  0.3120029204902968  0.3611417370255385
  0.8087891895398847  0.3828263394340299  0.4324173620838648
  0.8546659364372201  0.4373614408712531  0.4298814097649601
  0.9220211624114927  0.3761527170544629  0.6182661794972018
  0.8760773079809576  0.3699151398379535  0.5389149020388729
  0.8099213774630458  0.3671513650605727  0.5678899578531700
  0.8111883680184813  0.3704644728028156  0.6722113828458544
  0.8782014559018853  0.3746634242868235  0.6990688866182576
  0.9068723946923332  0.4040735317509376  0.8813232855680060
  0.8559827833962526  0.4383523532734621  0.8089442196465887
  0.8080308259957504  0.3856474016303765  0.8107098494173988
  0.8212703022778127  0.3160629538767106  0.8823332259367875
  0.8789164346143192  0.3247465250717297  0.9239305008991525
  0.8983116840907166  0.6421980403936113  0.0920579538806365
  0.8645101353706317  0.5583653068357922  0.0631739861054125
  0.8161139576961542  0.5544059415828778  0.1147588390051043
  0.8100080227049563  0.6337178189645208  0.1765015648453166
  0.8578502399519892  0.6853117600473135  0.1667079933127285
  0.9106747358598245  0.6781352881009706  0.3649678698802101
  0.8508514273012723  0.6801120391905290  0.2925146682131936
  0.8134470794777219  0.6232139275204583  0.3143085783371218
  0.8457138906591777  0.5812154025430567  0.3997341256009703
  0.9032207160001965  0.6122829823634005  0.4306956154999692
  0.9023996786540126  0.6583059510938899  0.6268005828586038
  0.8517846314838079  0.6815969984303000  0.5503028029001933
  0.8077907026029956  0.6261290398061198  0.5555442850068566
  0.8270998716638918  0.5618930736439852  0.6312361724446911
  0.8811000227307519  0.5803394286507939  0.6745957510349844
  0.9013710744745592  0.5801583255356029  0.8785590757646555
  0.8427510933441272  0.5859694997285202  0.8053195235105312
  0.8096645023888323  0.6448877671261579  0.8299576876645327
  0.8433960767682408  0.6804694031307453  0.9154263590200621
  0.8967568680468865  0.6437892947517729  0.9474449303710033
  0.8805408463281449  0.9284043242136385  0.1344921679031478
  0.9385172166756730  0.8585811207268517  0.1068468162124808
  0.8843234439439923  0.8137814067109229  0.0952297414389157
  0.7900739973383839  0.8461087568052285  0.1220649773072160
  0.7850472546762804  0.9155763738053855  0.1373968179690388
  0.9282629628516911  0.8799510567300280  0.3647526624663332
  0.8816887237971192  0.8793702334296001  0.2855014686688592
  0.8154273494187907  0.8808505586184606  0.3149303650796613
  0.8179336067501851  0.8815158976451846  0.4194799641602911
  0.8852433598379158  0.8808139806245536  0.4457732041182019
  0.9041502136657463  0.8461321574870146  0.6397460886721560
  0.8615295651423905  0.8115621657129295  0.5641127717041831
  0.8124598004470567  0.8631304519870815  0.5601377599226847
  0.8190339052496743  0.9343868048403037  0.6329815697686549
  0.8726930418537033  0.9257937716469814  0.6793547277796567
  0.9298768313896599  0.8705257624128739  0.8641679188604606
  0.8677671554420470  0.8540021098220023  0.7968678673377059
  0.8122012403982778  0.8419382112280464  0.8404448527084929
  0.8342016623615705  0.8553198244733152  0.9393170020153543
  0.9048245394594028  0.8671417763806495  0.9533496773797474
  0.2429701038885238  0.9961566253297153  0.0018616039763111
  0.2360208217955759  0.9956479298161347  0.2489800426943741
  0.2359888304182536  0.9956157651530877  0.5039976616685816
  0.2330831408165102  0.9922528057277716  0.7335603249058208
  0.2367812050567233  0.2435256007379649  0.0029737946778363
  0.2320061588995865  0.2517217294810751  0.2398499208124437
  0.2351307549051959  0.2439056946545757  0.4930048787624114
  0.2274847147105840  0.2502699953230713  0.7511065852524086
  0.2401879956952331  0.4903404757824317  0.0121853540182438
  0.2326906055482283  0.4909556086546271  0.2505225261062361
  0.2307035384912777  0.4959652520999675  0.4899251499415334
  0.2376373661227929  0.4936810967697575  0.7473797693284309
  0.2354352603988573  0.7471737452931885  0.0003793793772189
  0.2281964081376877  0.7517358232901374  0.2627578054539633
  0.2451162904215777  0.7493354270425017  0.5076165653630127
  0.2382380747092591  0.7451551094496801  0.7596506387913221
  0.4879062033177601  0.9889369347799003  0.0010826446821737
  0.4830968952156914  0.9958032080197657  0.2657381196761839
  0.4902855211493118  0.0111514061419938  0.5049691982354224
  0.4848478144300633  0.0068964729964032  0.7473714931980955
  0.4921262266347212  0.2378167697640012  0.9930294534674842
  0.4899063162247783  0.2498106190684523  0.2359145939461962
  0.4807090379285033  0.2465761447252819  0.4973703901853999
  0.4772365457659714  0.2515763521372982  0.7561657750649877
  0.4748228335616967  0.5017651713664878  0.0018991849244413
  0.4866541353695980  0.4938542296035331  0.2467352279338570
  0.4852646723133408  0.4914876719081189  0.4968027453880517
  0.4761877161448699  0.4916751653622394  0.7373970277086256
  0.4840064200102644  0.7486479807088964  0.0104941008659733
  0.4864984720796276  0.7583193045318027  0.2421626712038456
  0.4836771576826093  0.7526259244257064  0.4997168922790650
  0.4884546919688014  0.7474665016379776  0.7534191846108091
  0.7325367610386997  0.9903736751066331  0.0128751261178891
  0.7337491991461345  0.9980887792681117  0.2503108529044346
  0.7410012881026028  0.9958504184019470  0.4956624810142355
  0.7408469124460159  0.9955229884495415  0.7541793567446400
  0.7433616311536685  0.2412912284763023  0.9900449037000889
  0.7335922183899477  0.2475594673355635  0.2445759074306700
  0.7341466245845593  0.2481955075326757  0.4988118372207357
  0.7398248610195883  0.2570170240946534  0.7509612664547294
  0.7300091651474613  0.4942780690871353  0.9912790015854632
  0.7294575648968558  0.5058999721605995  0.2460758062362195
  0.7298192366648215  0.5039878936836789  0.4907273867255350
  0.7334339688723966  0.5008344255060199  0.7443263956473072
  0.7462348422078858  0.7439496368466414  0.0105056726330261
  0.7354375946182717  0.7534541545695531  0.2520915384823562
  0.7212462269831138  0.7529905779531211  0.5023839943638581
  0.7307885722209432  0.7420753921208867  0.7445783086872969
  0.9867582485400985  0.9879250958901737  0.9891295726138383
  0.9766413809673562  0.0003731446418368  0.2422377581683650
  0.9802870070425014  0.9940903622192955  0.4825857856112420
  0.9791659677761855  0.0027709561347860  0.7524936110012856
  0.9852815416096949  0.2457796154861356  0.9956929047677936
  0.9764767954171959  0.2427715564765401  0.2452302009954935
  0.9841056355564319  0.2503483876024406  0.4973225174985570
  0.9870798714947016  0.2518522869250348  0.7494573377505469
  0.9847871742010577  0.4979966771111388  0.0046045673521558
  0.9666835261209091  0.5041906533899287  0.2458242288744440
  0.9874969991106987  0.5054140800531999  0.4930324582003434
  0.9875813120568678  0.5062440770933124  0.7511453812044859
  0.9889232372443520  0.7477257906828714  0.9944959918117424
  0.9847051475293142  0.7572405547664899  0.2474636664570866
  0.9793929219305372  0.7540874878446109  0.4894839701178477
  0.9829086464790078  0.7482886113719537  0.7516200175690663
  0.1023456288500903  0.0945284399939636  0.1250673012809484
  0.1305866053671432  0.1229546388034972  0.3689193886733483
  0.1195352231389720  0.1338536609083073  0.6244946705250808
  0.1459432642893254  0.1227666820515292  0.8793140072150624
  0.1045236988655697  0.4005786374923783  0.1159463469577862
  0.1166813351586961  0.3827488769636053  0.3718890876756262
  0.1407567415395840  0.3800172452225372  0.6207120426544095
  0.1265260713114333  0.3902846373993953  0.8775150857124008
  0.1323291855196982  0.6224862472008146  0.1171707021022151
  0.1134446278627819  0.6308572960522506  0.3665085567501860
  0.1234838702512571  0.6395462561033866  0.6224174952829697
  0.1089488898393343  0.6340211480038604  0.8816104778862306
  0.1313870660869341  0.8812569519342459  0.1248123218666958
  0.1182998678241503  0.8878018478239871  0.3627742397928437
  0.0974122521391752  0.8561959980761419  0.6292726692051970
  0.1150784950276350  0.8799757209637881  0.8762583329052208
  0.3736654631979880  0.1268651749328978  0.1304213730782828
  0.3758998433526671  0.1355477232578997  0.3772151768482046
  0.3722510674189102  0.1162911932610405  0.6236602292001283
  0.3754512062102524  0.1345676999482768  0.8778851364784654
  0.3743496710292893  0.3796622803218880  0.1240117780902337
  0.3730754701232287  0.3680958626168646  0.3769601956136571
  0.3704318167802618  0.3827134580930067  0.6162804158904266
  0.3757767794974590  0.3777512962724326  0.8760559901999113
  0.3676101228880160  0.6091335268928640  0.1180489669979549
  0.3808565177108555  0.6304081633419555  0.3756106797261707
  0.3716468977630459  0.6263093798020455  0.6220837147109607
  0.3726938635228166  0.6321077618223684  0.8607966877739468
  0.3717992844425844  0.8785630009220358  0.1317680958288220
  0.3756721888728824  0.8708239043192436  0.3657975342754198
  0.3651603883155268  0.8724172625723867  0.6305410675272094
  0.3746287105196541  0.8672019881328672  0.8634896380951627
  0.6257113655579234  0.1310878516073932  0.1308304395992692
  0.6295179287175012  0.1376457235333710  0.3703532112528254
  0.6263361923821077  0.1435532384064810  0.6259422058067532
  0.6297262051723891  0.1156328633496024  0.8722135724305683
  0.6197933491385118  0.3713456818720984  0.1138526439677289
  0.6281777456590669  0.3686945830355818  0.3708181281221501
  0.6190512851841187  0.3830462374324605  0.6163769491595807
  0.6181432892315160  0.3652072729445190  0.8687504547366757
  0.6259370336910808  0.6170994095195230  0.1222210949476478
  0.6200597118092323  0.6211715171941813  0.3799850681897775
  0.6325043608516202  0.6286473541413568  0.6198559807162320
  0.6178466255858197  0.6247559221895861  0.8746451570413816
  0.6169747567113588  0.8600225863547351  0.1386951100200285
  0.6207679423088406  0.8782762374939243  0.3761186471181880
  0.6248709586503332  0.8780444571048739  0.6366505707587621
  0.6256705107724611  0.8766190487509674  0.8676004543969525
  0.8641219458433076  0.1030594550094127  0.1137580456088707
  0.8790252958903387  0.1170307408445661  0.3716401322381298
  0.8740292478742127  0.1248873307821993  0.6231367812808835
  0.8704056951564094  0.1284645514036500  0.8758717800578585
  0.8774100350488048  0.3759522975929820  0.1189955814607662
  0.8656566506200508  0.3819032134596556  0.3707987986844926
  0.8767774194132691  0.3736261557931635  0.6189761753381400
  0.8699971354765109  0.3825405880825303  0.8671686471810136
  0.8642571204142814  0.6228693744872105  0.1137987005254394
  0.8780635819104288  0.6473994728567052  0.3618991594089892
  0.8682255752495812  0.6323288852626787  0.6134627522735782
  0.8714034222138717  0.6134857142218785  0.8762376210419746
  0.8630137205629432  0.8888216803694841  0.1243358074145402
  0.8830078008288280  0.8804883847305394  0.3656423480195058
  0.8685867989821966  0.8676059477469875  0.6225490420041090
  0.8869875654169427  0.8612663958574337  0.8748536458069824
  0.1137530918524955  0.9922221511249489  0.0094525933089983
  0.2413954599546196  0.0025064823165942  0.3774336311455470
  0.1067657139605012  0.9886123058005344  0.2467880863547294
  0.2340174399442654  0.1228922344130785  0.2504998348949538
  0.1105695126695029  0.9877565463706367  0.4885017017055630
  0.2583553255608821  0.0071940856130461  0.8760058940191732
  0.1066900385734078  0.9871761789259083  0.7682528735873949
  0.2291154503116895  0.1214977888183993  0.7376045503841983
  0.1102326382913123  0.2381760792051494  0.0318578014239004
  0.2212673851789071  0.2421496639091605  0.3670728566224384
  0.1056440161168708  0.2379156319379248  0.2119438032011553
  0.2576283970325101  0.2513722279092788  0.6209581682283589
  0.1114302174340448  0.2425831630159884  0.5219019554570246
  0.2287888392671167  0.2444157344667742  0.8750371235254933
  0.1121270912707323  0.4944130229506258  0.9804873184905817
  0.2318863269552587  0.6197048131777363  0.9960647280126246
  0.1014808708268761  0.4898994463655393  0.2422536196923002
  0.2245077870769064  0.6221199758175519  0.2569956184673438
  0.2357722095802850  0.4954526353400442  0.6148813830565978
  0.1079238879552835  0.4989776429420417  0.4587215920228706
  0.2283453852047303  0.6239148250622559  0.4944782601584701
  0.2555266666360570  0.4966504566188659  0.8711214287582091
  0.1116796358529234  0.7639394322912865  0.5041145309065530
  0.1119736333932275  0.7403648411378092  0.7354837748832255
  0.2315131097518899  0.8684705932205887  0.7723661596705870
  0.5104387429927935  0.9949461735482990  0.1293755118956711
  0.3643491324839826  0.9999892544520024  0.0349065862078050
  0.4758106505571122  0.1229437492425050  0.2461097631249188
  0.4838128841832438  0.0026176249461010  0.8707201383870919
  0.3597848604936439  0.9979725969012245  0.7136390583521901
  0.3651836740058204  0.2426170888303051  0.9832759136980529
  0.4813238429841665  0.3685892529629415  0.0014768964747205
  0.4882191678632211  0.2565448123178428  0.3699784387184935
  0.3619298806820830  0.2639200916758748  0.2421838463745905
  0.4795393538677191  0.2548707611323361  0.6294402821815920
  0.4901219792665197  0.6234416849103439  0.2597490512299980
  0.3598579143762984  0.4863518193845247  0.4766552453449601