 C  N  H Pb  Br                         
   1.00000000000000     
     5.8669039939771084    0.0000000000000000    0.0000000387451557
    -0.0000000000000000    6.0263062784041530   -0.0000000000000000
    -0.0000007587032683   -0.0000000000000000    6.0800459104984643
   C    N    H    Pb   Br
     1     2     5     1     3
Direct
  0.5285346099526161  0.5000000000000000  0.4999989869999979
  0.4276961333657481  0.5000000000000000  0.3084577896209240
  0.4276961333657481  0.5000000000000000  0.6915441773790794
  0.7153366934318769  0.5000000000000000  0.5000000000000000
  0.5314155173140825  0.5000000000000000  0.1734471444808687
  0.2547033046346027  0.5000000000000000  0.2855734693839931
  0.2547033046346027  0.5000000000000000  0.7144265306160071
  0.5314155173140825  0.5000000000000000  0.8265528555191315
  0.9540868205432506  0.0000000000000000 -0.0000000000000000
  0.9681734492250382 -0.0000000000000000  0.5000000000000000
  0.4544553637342190 -0.0000000000000000 -0.0000000000000000
  0.9202981034841280  0.5000000000000000 -0.0000000000000000
 
  0.00000000E+00  0.00000000E+00  0.00000000E+00
  0.00000000E+00  0.00000000E+00  0.00000000E+00
  0.00000000E+00  0.00000000E+00  0.00000000E+00
  0.00000000E+00  0.00000000E+00  0.00000000E+00
  0.00000000E+00  0.00000000E+00  0.00000000E+00
  0.00000000E+00  0.00000000E+00  0.00000000E+00
  0.00000000E+00  0.00000000E+00  0.00000000E+00
  0.00000000E+00  0.00000000E+00  0.00000000E+00
  0.00000000E+00  0.00000000E+00  0.00000000E+00
  0.00000000E+00  0.00000000E+00  0.00000000E+00
  0.00000000E+00  0.00000000E+00  0.00000000E+00
  0.00000000E+00  0.00000000E+00  0.00000000E+00
