H320 Pb64 C64 I112 Br80 N128
1.0
  24.3604457818369902    0.0000000000000000    0.0000000629342231
   0.0000000000000000   24.8925775998846710    0.0000000000000000
  -0.0000032518441021    0.0000000000000000   25.0967787541053617
H Pb C I Br N
320 64 64 112 80 128
direct
   0.1722797585836347    0.1210462487105408    0.1211319987281428 H
   0.1279846786861166    0.1210462487105408    0.0420199988355556 H
   0.0613420565835739    0.1210462487105408    0.0691841701158155 H
   0.0613420570958904    0.1210462487105408    0.1730798264745793 H
   0.1279846794663299    0.1210462487105408    0.2002439982749982 H
   0.1722797585836346    0.1210462487105408    0.3711319987281428 H
   0.1279846786861166    0.1210462487105408    0.2920199988355556 H
   0.0613420565835739    0.1210462487105408    0.3191841701158155 H
   0.0613420570958904    0.1210462487105408    0.4230798264745794 H
   0.1279846794663298    0.1210462487105408    0.4502439982749982 H
   0.1722797585836347    0.1210462487105408    0.6211319987281428 H
   0.1279846786861166    0.1210462487105408    0.5420199988355556 H
   0.0613420565835739    0.1210462487105408    0.5691841701158156 H
   0.0613420570958904    0.1210462487105408    0.6730798264745794 H
   0.1279846794663298    0.1210462487105408    0.7002439982749982 H
   0.1722797585836346    0.1210462487105408    0.8711319987281428 H
   0.1279846786861166    0.1210462487105408    0.7920199988355557 H
   0.0613420565835739    0.1210462487105408    0.8191841701158157 H
   0.0613420570958904    0.1210462487105408    0.9230798264745793 H
   0.1279846794663299    0.1210462487105408    0.9502439982749983 H
   0.1722797585836347    0.3710462487105408    0.1211319987281428 H
   0.1279846786861166    0.3710462487105408    0.0420199988355556 H
   0.0613420565835739    0.3710462487105408    0.0691841701158155 H
   0.0613420570958904    0.3710462487105408    0.1730798264745793 H
   0.1279846794663299    0.3710462487105408    0.2002439982749982 H
   0.1722797585836346    0.3710462487105408    0.3711319987281428 H
   0.1279846786861166    0.3710462487105408    0.2920199988355556 H
   0.0613420565835739    0.3710462487105408    0.3191841701158155 H
   0.0613420570958904    0.3710462487105408    0.4230798264745794 H
   0.1279846794663298    0.3710462487105408    0.4502439982749982 H
   0.1722797585836347    0.3710462487105408    0.6211319987281428 H
   0.1279846786861166    0.3710462487105408    0.5420199988355556 H
   0.0613420565835739    0.3710462487105408    0.5691841701158156 H
   0.0613420570958904    0.3710462487105408    0.6730798264745794 H
   0.1279846794663298    0.3710462487105408    0.7002439982749982 H
   0.1722797585836346    0.3710462487105408    0.8711319987281428 H
   0.1279846786861166    0.3710462487105408    0.7920199988355557 H
   0.0613420565835739    0.3710462487105408    0.8191841701158157 H
   0.0613420570958904    0.3710462487105408    0.9230798264745793 H
   0.1279846794663299    0.3710462487105408    0.9502439982749983 H
   0.1722797585836347    0.6210462487105408    0.1211319987281428 H
   0.1279846786861166    0.6210462487105408    0.0420199988355556 H
   0.0613420565835739    0.6210462487105408    0.0691841701158155 H
   0.0613420570958904    0.6210462487105408    0.1730798264745793 H
   0.1279846794663299    0.6210462487105408    0.2002439982749982 H
   0.1722797585836346    0.6210462487105408    0.3711319987281428 H
   0.1279846786861166    0.6210462487105408    0.2920199988355556 H
   0.0613420565835739    0.6210462487105408    0.3191841701158155 H
   0.0613420570958904    0.6210462487105408    0.4230798264745794 H
   0.1279846794663298    0.6210462487105408    0.4502439982749982 H
   0.1722797585836347    0.6210462487105408    0.6211319987281428 H
   0.1279846786861166    0.6210462487105408    0.5420199988355556 H
   0.0613420565835739    0.6210462487105408    0.5691841701158156 H
   0.0613420570958904    0.6210462487105408    0.6730798264745794 H
   0.1279846794663298    0.6210462487105408    0.7002439982749982 H
   0.1722797585836346    0.6210462487105408    0.8711319987281428 H
   0.1279846786861166    0.6210462487105408    0.7920199988355557 H
   0.0613420565835739    0.6210462487105408    0.8191841701158157 H
   0.0613420570958904    0.6210462487105408    0.9230798264745793 H
   0.1279846794663299    0.6210462487105408    0.9502439982749983 H
   0.1722797585836347    0.8710462487105408    0.1211319987281428 H
   0.1279846786861166    0.8710462487105408    0.0420199988355556 H
   0.0613420565835739    0.8710462487105408    0.0691841701158155 H
   0.0613420570958904    0.8710462487105408    0.1730798264745793 H
   0.1279846794663299    0.8710462487105408    0.2002439982749982 H
   0.1722797585836346    0.8710462487105408    0.3711319987281428 H
   0.1279846786861166    0.8710462487105408    0.2920199988355556 H
   0.0613420565835739    0.8710462487105408    0.3191841701158155 H
   0.0613420570958904    0.8710462487105408    0.4230798264745794 H
   0.1279846794663298    0.8710462487105408    0.4502439982749982 H
   0.1722797585836347    0.8710462487105408    0.6211319987281428 H
   0.1279846786861166    0.8710462487105408    0.5420199988355556 H
   0.0613420565835739    0.8710462487105408    0.5691841701158156 H
   0.0613420570958904    0.8710462487105408    0.6730798264745794 H
   0.1279846794663298    0.8710462487105408    0.7002439982749982 H
   0.1722797585836346    0.8710462487105408    0.8711319987281428 H
   0.1279846786861166    0.8710462487105408    0.7920199988355557 H
   0.0613420565835739    0.8710462487105408    0.8191841701158157 H
   0.0613420570958904    0.8710462487105408    0.9230798264745793 H
   0.1279846794663299    0.8710462487105408    0.9502439982749983 H
   0.4222797585836347    0.1210462487105408    0.1211319987281428 H
   0.3779846786861165    0.1210462487105408    0.0420199988355556 H
   0.3113420565835739    0.1210462487105408    0.0691841701158155 H
   0.3113420570958904    0.1210462487105408    0.1730798264745793 H
   0.3779846794663299    0.1210462487105408    0.2002439982749982 H
   0.4222797585836347    0.1210462487105408    0.3711319987281428 H
   0.3779846786861166    0.1210462487105408    0.2920199988355556 H
   0.3113420565835739    0.1210462487105408    0.3191841701158156 H
   0.3113420570958904    0.1210462487105408    0.4230798264745794 H
   0.3779846794663298    0.1210462487105408    0.4502439982749981 H
   0.4222797585836346    0.1210462487105408    0.6211319987281428 H
   0.3779846786861166    0.1210462487105408    0.5420199988355555 H
   0.3113420565835739    0.1210462487105408    0.5691841701158156 H
   0.3113420570958905    0.1210462487105408    0.6730798264745793 H
   0.3779846794663298    0.1210462487105408    0.7002439982749982 H
   0.4222797585836346    0.1210462487105408    0.8711319987281427 H
   0.3779846786861166    0.1210462487105408    0.7920199988355556 H
   0.3113420565835739    0.1210462487105408    0.8191841701158157 H
   0.3113420570958904    0.1210462487105408    0.9230798264745793 H
   0.3779846794663299    0.1210462487105408    0.9502439982749983 H
   0.4222797585836347    0.3710462487105408    0.1211319987281428 H
   0.3779846786861165    0.3710462487105408    0.0420199988355556 H
   0.3113420565835739    0.3710462487105408    0.0691841701158155 H
   0.3113420570958904    0.3710462487105408    0.1730798264745793 H
   0.3779846794663299    0.3710462487105408    0.2002439982749982 H
   0.4222797585836347    0.3710462487105408    0.3711319987281428 H
   0.3779846786861166    0.3710462487105408    0.2920199988355556 H
   0.3113420565835739    0.3710462487105408    0.3191841701158156 H
   0.3113420570958904    0.3710462487105408    0.4230798264745794 H
   0.3779846794663298    0.3710462487105408    0.4502439982749981 H
   0.4222797585836346    0.3710462487105408    0.6211319987281428 H
   0.3779846786861166    0.3710462487105408    0.5420199988355555 H
   0.3113420565835739    0.3710462487105408    0.5691841701158156 H
   0.3113420570958905    0.3710462487105408    0.6730798264745793 H
   0.3779846794663298    0.3710462487105408    0.7002439982749982 H
   0.4222797585836346    0.3710462487105408    0.8711319987281427 H
   0.3779846786861166    0.3710462487105408    0.7920199988355556 H
   0.3113420565835739    0.3710462487105408    0.8191841701158157 H
   0.3113420570958904    0.3710462487105408    0.9230798264745793 H
   0.3779846794663299    0.3710462487105408    0.9502439982749983 H
   0.4222797585836347    0.6210462487105408    0.1211319987281428 H
   0.3779846786861165    0.6210462487105408    0.0420199988355556 H
   0.3113420565835739    0.6210462487105408    0.0691841701158155 H
   0.3113420570958904    0.6210462487105408    0.1730798264745793 H
   0.3779846794663299    0.6210462487105408    0.2002439982749982 H
   0.4222797585836347    0.6210462487105408    0.3711319987281428 H
   0.3779846786861166    0.6210462487105408    0.2920199988355556 H
   0.3113420565835739    0.6210462487105408    0.3191841701158156 H
   0.3113420570958904    0.6210462487105408    0.4230798264745794 H
   0.3779846794663298    0.6210462487105408    0.4502439982749981 H
   0.4222797585836346    0.6210462487105408    0.6211319987281428 H
   0.3779846786861166    0.6210462487105408    0.5420199988355555 H
   0.3113420565835739    0.6210462487105408    0.5691841701158156 H
   0.3113420570958905    0.6210462487105408    0.6730798264745793 H
   0.3779846794663298    0.6210462487105408    0.7002439982749982 H
   0.4222797585836346    0.6210462487105408    0.8711319987281427 H
   0.3779846786861166    0.6210462487105408    0.7920199988355556 H
   0.3113420565835739    0.6210462487105408    0.8191841701158157 H
   0.3113420570958904    0.6210462487105408    0.9230798264745793 H
   0.3779846794663299    0.6210462487105408    0.9502439982749983 H
   0.4222797585836347    0.8710462487105408    0.1211319987281428 H
   0.3779846786861165    0.8710462487105408    0.0420199988355556 H
   0.3113420565835739    0.8710462487105408    0.0691841701158155 H
   0.3113420570958904    0.8710462487105408    0.1730798264745793 H
   0.3779846794663299    0.8710462487105408    0.2002439982749982 H
   0.4222797585836347    0.8710462487105408    0.3711319987281428 H
   0.3779846786861166    0.8710462487105408    0.2920199988355556 H
   0.3113420565835739    0.8710462487105408    0.3191841701158156 H
   0.3113420570958904    0.8710462487105408    0.4230798264745794 H
   0.3779846794663298    0.8710462487105408    0.4502439982749981 H
   0.4222797585836346    0.8710462487105408    0.6211319987281428 H
   0.3779846786861166    0.8710462487105408    0.5420199988355555 H
   0.3113420565835739    0.8710462487105408    0.5691841701158156 H
   0.3113420570958905    0.8710462487105408    0.6730798264745793 H
   0.3779846794663298    0.8710462487105408    0.7002439982749982 H
   0.4222797585836346    0.8710462487105408    0.8711319987281427 H
   0.3779846786861166    0.8710462487105408    0.7920199988355556 H
   0.3113420565835739    0.8710462487105408    0.8191841701158157 H
   0.3113420570958904    0.8710462487105408    0.9230798264745793 H
   0.3779846794663299    0.8710462487105408    0.9502439982749983 H
   0.6722797585836346    0.1210462487105408    0.1211319987281428 H
   0.6279846786861166    0.1210462487105408    0.0420199988355556 H
   0.5613420565835739    0.1210462487105408    0.0691841701158155 H
   0.5613420570958904    0.1210462487105408    0.1730798264745793 H
   0.6279846794663297    0.1210462487105408    0.2002439982749981 H
   0.6722797585836346    0.1210462487105408    0.3711319987281428 H
   0.6279846786861166    0.1210462487105408    0.2920199988355556 H
   0.5613420565835739    0.1210462487105408    0.3191841701158155 H
   0.5613420570958904    0.1210462487105408    0.4230798264745793 H
   0.6279846794663299    0.1210462487105408    0.4502439982749982 H
   0.6722797585836346    0.1210462487105408    0.6211319987281427 H
   0.6279846786861165    0.1210462487105408    0.5420199988355556 H
   0.5613420565835739    0.1210462487105408    0.5691841701158156 H
   0.5613420570958905    0.1210462487105408    0.6730798264745793 H
   0.6279846794663297    0.1210462487105408    0.7002439982749983 H
   0.6722797585836346    0.1210462487105408    0.8711319987281428 H
   0.6279846786861165    0.1210462487105408    0.7920199988355556 H
   0.5613420565835739    0.1210462487105408    0.8191841701158156 H
   0.5613420570958905    0.1210462487105408    0.9230798264745792 H
   0.6279846794663299    0.1210462487105408    0.9502439982749982 H
   0.6722797585836346    0.3710462487105408    0.1211319987281428 H
   0.6279846786861166    0.3710462487105408    0.0420199988355556 H
   0.5613420565835739    0.3710462487105408    0.0691841701158155 H
   0.5613420570958904    0.3710462487105408    0.1730798264745793 H
   0.6279846794663297    0.3710462487105408    0.2002439982749981 H
   0.6722797585836346    0.3710462487105408    0.3711319987281428 H
   0.6279846786861166    0.3710462487105408    0.2920199988355556 H
   0.5613420565835739    0.3710462487105408    0.3191841701158155 H
   0.5613420570958904    0.3710462487105408    0.4230798264745793 H
   0.6279846794663299    0.3710462487105408    0.4502439982749982 H
   0.6722797585836346    0.3710462487105408    0.6211319987281427 H
   0.6279846786861165    0.3710462487105408    0.5420199988355556 H
   0.5613420565835739    0.3710462487105408    0.5691841701158156 H
   0.5613420570958905    0.3710462487105408    0.6730798264745793 H
   0.6279846794663297    0.3710462487105408    0.7002439982749983 H
   0.6722797585836346    0.3710462487105408    0.8711319987281428 H
   0.6279846786861165    0.3710462487105408    0.7920199988355556 H
   0.5613420565835739    0.3710462487105408    0.8191841701158156 H
   0.5613420570958905    0.3710462487105408    0.9230798264745792 H
   0.6279846794663299    0.3710462487105408    0.9502439982749982 H
   0.6722797585836346    0.6210462487105408    0.1211319987281428 H
   0.6279846786861166    0.6210462487105408    0.0420199988355556 H
   0.5613420565835739    0.6210462487105408    0.0691841701158155 H
   0.5613420570958904    0.6210462487105408    0.1730798264745793 H
   0.6279846794663297    0.6210462487105408    0.2002439982749981 H
   0.6722797585836346    0.6210462487105408    0.3711319987281428 H
   0.6279846786861166    0.6210462487105408    0.2920199988355556 H
   0.5613420565835739    0.6210462487105408    0.3191841701158155 H
   0.5613420570958904    0.6210462487105408    0.4230798264745793 H
   0.6279846794663299    0.6210462487105408    0.4502439982749982 H
   0.6722797585836346    0.6210462487105408    0.6211319987281427 H
   0.6279846786861165    0.6210462487105408    0.5420199988355556 H
   0.5613420565835739    0.6210462487105408    0.5691841701158156 H
   0.5613420570958905    0.6210462487105408    0.6730798264745793 H
   0.6279846794663297    0.6210462487105408    0.7002439982749983 H
   0.6722797585836346    0.6210462487105408    0.8711319987281428 H
   0.6279846786861165    0.6210462487105408    0.7920199988355556 H
   0.5613420565835739    0.6210462487105408    0.8191841701158156 H
   0.5613420570958905    0.6210462487105408    0.9230798264745792 H
   0.6279846794663299    0.6210462487105408    0.9502439982749982 H
   0.6722797585836346    0.8710462487105408    0.1211319987281428 H
   0.6279846786861166    0.8710462487105408    0.0420199988355556 H
   0.5613420565835739    0.8710462487105408    0.0691841701158155 H
   0.5613420570958904    0.8710462487105408    0.1730798264745793 H
   0.6279846794663297    0.8710462487105408    0.2002439982749981 H
   0.6722797585836346    0.8710462487105408    0.3711319987281428 H
   0.6279846786861166    0.8710462487105408    0.2920199988355556 H
   0.5613420565835739    0.8710462487105408    0.3191841701158155 H
   0.5613420570958904    0.8710462487105408    0.4230798264745793 H
   0.6279846794663299    0.8710462487105408    0.4502439982749982 H
   0.6722797585836346    0.8710462487105408    0.6211319987281427 H
   0.6279846786861165    0.8710462487105408    0.5420199988355556 H
   0.5613420565835739    0.8710462487105408    0.5691841701158156 H
   0.5613420570958905    0.8710462487105408    0.6730798264745793 H
   0.6279846794663297    0.8710462487105408    0.7002439982749983 H
   0.6722797585836346    0.8710462487105408    0.8711319987281428 H
   0.6279846786861165    0.8710462487105408    0.7920199988355556 H
   0.5613420565835739    0.8710462487105408    0.8191841701158156 H
   0.5613420570958905    0.8710462487105408    0.9230798264745792 H
   0.6279846794663299    0.8710462487105408    0.9502439982749982 H
   0.9222797585836348    0.1210462487105408    0.1211319987281428 H
   0.8779846786861166    0.1210462487105408    0.0420199988355556 H
   0.8113420565835739    0.1210462487105408    0.0691841701158155 H
   0.8113420570958904    0.1210462487105408    0.1730798264745793 H
   0.8779846794663299    0.1210462487105408    0.2002439982749981 H
   0.9222797585836346    0.1210462487105408    0.3711319987281428 H
   0.8779846786861166    0.1210462487105408    0.2920199988355556 H
   0.8113420565835739    0.1210462487105408    0.3191841701158155 H
   0.8113420570958904    0.1210462487105408    0.4230798264745793 H
   0.8779846794663299    0.1210462487105408    0.4502439982749982 H
   0.9222797585836346    0.1210462487105408    0.6211319987281428 H
   0.8779846786861166    0.1210462487105408    0.5420199988355556 H
   0.8113420565835741    0.1210462487105408    0.5691841701158156 H
   0.8113420570958905    0.1210462487105408    0.6730798264745792 H
   0.8779846794663300    0.1210462487105408    0.7002439982749982 H
   0.9222797585836346    0.1210462487105408    0.8711319987281428 H
   0.8779846786861166    0.1210462487105408    0.7920199988355556 H
   0.8113420565835739    0.1210462487105408    0.8191841701158157 H
   0.8113420570958904    0.1210462487105408    0.9230798264745794 H
   0.8779846794663299    0.1210462487105408    0.9502439982749984 H
   0.9222797585836348    0.3710462487105408    0.1211319987281428 H
   0.8779846786861166    0.3710462487105408    0.0420199988355556 H
   0.8113420565835739    0.3710462487105408    0.0691841701158155 H
   0.8113420570958904    0.3710462487105408    0.1730798264745793 H
   0.8779846794663299    0.3710462487105408    0.2002439982749981 H
   0.9222797585836346    0.3710462487105408    0.3711319987281428 H
   0.8779846786861166    0.3710462487105408    0.2920199988355556 H
   0.8113420565835739    0.3710462487105408    0.3191841701158155 H
   0.8113420570958904    0.3710462487105408    0.4230798264745793 H
   0.8779846794663299    0.3710462487105408    0.4502439982749982 H
   0.9222797585836346    0.3710462487105408    0.6211319987281428 H
   0.8779846786861166    0.3710462487105408    0.5420199988355556 H
   0.8113420565835741    0.3710462487105408    0.5691841701158156 H
   0.8113420570958905    0.3710462487105408    0.6730798264745792 H
   0.8779846794663300    0.3710462487105408    0.7002439982749982 H
   0.9222797585836346    0.3710462487105408    0.8711319987281428 H
   0.8779846786861166    0.3710462487105408    0.7920199988355556 H
   0.8113420565835739    0.3710462487105408    0.8191841701158157 H
   0.8113420570958904    0.3710462487105408    0.9230798264745794 H
   0.8779846794663299    0.3710462487105408    0.9502439982749984 H
   0.9222797585836348    0.6210462487105408    0.1211319987281428 H
   0.8779846786861166    0.6210462487105408    0.0420199988355556 H
   0.8113420565835739    0.6210462487105408    0.0691841701158155 H
   0.8113420570958904    0.6210462487105408    0.1730798264745793 H
   0.8779846794663299    0.6210462487105408    0.2002439982749981 H
   0.9222797585836346    0.6210462487105408    0.3711319987281428 H
   0.8779846786861166    0.6210462487105408    0.2920199988355556 H
   0.8113420565835739    0.6210462487105408    0.3191841701158155 H
   0.8113420570958904    0.6210462487105408    0.4230798264745793 H
   0.8779846794663299    0.6210462487105408    0.4502439982749982 H
   0.9222797585836346    0.6210462487105408    0.6211319987281428 H
   0.8779846786861166    0.6210462487105408    0.5420199988355556 H
   0.8113420565835741    0.6210462487105408    0.5691841701158156 H
   0.8113420570958905    0.6210462487105408    0.6730798264745792 H
   0.8779846794663300    0.6210462487105408    0.7002439982749982 H
   0.9222797585836346    0.6210462487105408    0.8711319987281428 H
   0.8779846786861166    0.6210462487105408    0.7920199988355556 H
   0.8113420565835739    0.6210462487105408    0.8191841701158157 H
   0.8113420570958904    0.6210462487105408    0.9230798264745794 H
   0.8779846794663299    0.6210462487105408    0.9502439982749984 H
   0.9222797585836348    0.8710462487105408    0.1211319987281428 H
   0.8779846786861166    0.8710462487105408    0.0420199988355556 H
   0.8113420565835739    0.8710462487105408    0.0691841701158155 H
   0.8113420570958904    0.8710462487105408    0.1730798264745793 H
   0.8779846794663299    0.8710462487105408    0.2002439982749981 H
   0.9222797585836346    0.8710462487105408    0.3711319987281428 H
   0.8779846786861166    0.8710462487105408    0.2920199988355556 H
   0.8113420565835739    0.8710462487105408    0.3191841701158155 H
   0.8113420570958904    0.8710462487105408    0.4230798264745793 H
   0.8779846794663299    0.8710462487105408    0.4502439982749982 H
   0.9222797585836346    0.8710462487105408    0.6211319987281428 H
   0.8779846786861166    0.8710462487105408    0.5420199988355556 H
   0.8113420565835741    0.8710462487105408    0.5691841701158156 H
   0.8113420570958905    0.8710462487105408    0.6730798264745792 H
   0.8779846794663300    0.8710462487105408    0.7002439982749982 H
   0.9222797585836346    0.8710462487105408    0.8711319987281428 H
   0.8779846786861166    0.8710462487105408    0.7920199988355556 H
   0.8113420565835739    0.8710462487105408    0.8191841701158157 H
   0.8113420570958904    0.8710462487105408    0.9230798264745794 H
   0.8779846794663299    0.8710462487105408    0.9502439982749984 H
   0.2297796940243027    0.0000000000000000    0.0000000008967380 Pb
   0.2297796940243027    0.0000000000000000    0.2500000008967381 Pb
   0.2297796940243027    0.0000000000000000    0.5000000008967380 Pb
   0.2297796940243027    0.0000000000000000    0.7500000008967381 Pb
   0.2297796940243027    0.2500000000000000    0.0000000008967380 Pb
   0.2297796940243027    0.2500000000000000    0.2500000008967381 Pb
   0.2297796940243027    0.2500000000000000    0.5000000008967380 Pb
   0.2297796940243027    0.2500000000000000    0.7500000008967381 Pb
   0.2297796940243027    0.5000000000000000    0.0000000008967380 Pb
   0.2297796940243027    0.5000000000000000    0.2500000008967381 Pb
   0.2297796940243027    0.5000000000000000    0.5000000008967380 Pb
   0.2297796940243027    0.5000000000000000    0.7500000008967381 Pb
   0.2297796940243027    0.7500000000000000    0.0000000008967380 Pb
   0.2297796940243027    0.7500000000000000    0.2500000008967381 Pb
   0.2297796940243027    0.7500000000000000    0.5000000008967380 Pb
   0.2297796940243027    0.7500000000000000    0.7500000008967381 Pb
   0.4797796940243028    0.0000000000000000    0.0000000008967380 Pb
   0.4797796940243027    0.0000000000000000    0.2500000008967381 Pb
   0.4797796940243027    0.0000000000000000    0.5000000008967380 Pb
   0.4797796940243027    0.0000000000000000    0.7500000008967381 Pb
   0.4797796940243028    0.2500000000000000    0.0000000008967380 Pb
   0.4797796940243027    0.2500000000000000    0.2500000008967381 Pb
   0.4797796940243027    0.2500000000000000    0.5000000008967380 Pb
   0.4797796940243027    0.2500000000000000    0.7500000008967381 Pb
   0.4797796940243028    0.5000000000000000    0.0000000008967380 Pb
   0.4797796940243027    0.5000000000000000    0.2500000008967381 Pb
   0.4797796940243027    0.5000000000000000    0.5000000008967380 Pb
   0.4797796940243027    0.5000000000000000    0.7500000008967381 Pb
   0.4797796940243028    0.7500000000000000    0.0000000008967380 Pb
   0.4797796940243027    0.7500000000000000    0.2500000008967381 Pb
   0.4797796940243027    0.7500000000000000    0.5000000008967380 Pb
   0.4797796940243027    0.7500000000000000    0.7500000008967381 Pb
   0.7297796940243026    0.0000000000000000    0.0000000008967380 Pb
   0.7297796940243028    0.0000000000000000    0.2500000008967381 Pb
   0.7297796940243029    0.0000000000000000    0.5000000008967380 Pb
   0.7297796940243028    0.0000000000000000    0.7500000008967380 Pb
   0.7297796940243026    0.2500000000000000    0.0000000008967380 Pb
   0.7297796940243028    0.2500000000000000    0.2500000008967381 Pb
   0.7297796940243029    0.2500000000000000    0.5000000008967380 Pb
   0.7297796940243028    0.2500000000000000    0.7500000008967380 Pb
   0.7297796940243026    0.5000000000000000    0.0000000008967380 Pb
   0.7297796940243028    0.5000000000000000    0.2500000008967381 Pb
   0.7297796940243029    0.5000000000000000    0.5000000008967380 Pb
   0.7297796940243028    0.5000000000000000    0.7500000008967380 Pb
   0.7297796940243026    0.7500000000000000    0.0000000008967380 Pb
   0.7297796940243028    0.7500000000000000    0.2500000008967381 Pb
   0.7297796940243029    0.7500000000000000    0.5000000008967380 Pb
   0.7297796940243028    0.7500000000000000    0.7500000008967380 Pb
   0.9797796940243026    0.0000000000000000    0.0000000008967380 Pb
   0.9797796940243026    0.0000000000000000    0.2500000008967380 Pb
   0.9797796940243029    0.0000000000000000    0.5000000008967380 Pb
   0.9797796940243028    0.0000000000000000    0.7500000008967381 Pb
   0.9797796940243026    0.2500000000000000    0.0000000008967380 Pb
   0.9797796940243026    0.2500000000000000    0.2500000008967380 Pb
   0.9797796940243029    0.2500000000000000    0.5000000008967380 Pb
   0.9797796940243028    0.2500000000000000    0.7500000008967381 Pb
   0.9797796940243026    0.5000000000000000    0.0000000008967380 Pb
   0.9797796940243026    0.5000000000000000    0.2500000008967380 Pb
   0.9797796940243029    0.5000000000000000    0.5000000008967380 Pb
   0.9797796940243028    0.5000000000000000    0.7500000008967381 Pb
   0.9797796940243026    0.7500000000000000    0.0000000008967380 Pb
   0.9797796940243026    0.7500000000000000    0.2500000008967380 Pb
   0.9797796940243029    0.7500000000000000    0.5000000008967380 Pb
   0.9797796940243028    0.7500000000000000    0.7500000008967381 Pb
   0.1272908491251352    0.1210462487105408    0.1211317531391405 C
   0.1272908491251352    0.1210462487105408    0.3711317531391405 C
   0.1272908491251352    0.1210462487105408    0.6211317531391406 C
   0.1272908491251352    0.1210462487105408    0.8711317531391406 C
   0.1272908491251352    0.3710462487105408    0.1211317531391405 C
   0.1272908491251352    0.3710462487105408    0.3711317531391405 C
   0.1272908491251352    0.3710462487105408    0.6211317531391406 C
   0.1272908491251352    0.3710462487105408    0.8711317531391406 C
   0.1272908491251352    0.6210462487105408    0.1211317531391405 C
   0.1272908491251352    0.6210462487105408    0.3711317531391405 C
   0.1272908491251352    0.6210462487105408    0.6211317531391406 C
   0.1272908491251352    0.6210462487105408    0.8711317531391406 C
   0.1272908491251352    0.8710462487105408    0.1211317531391405 C
   0.1272908491251352    0.8710462487105408    0.3711317531391405 C
   0.1272908491251352    0.8710462487105408    0.6211317531391406 C
   0.1272908491251352    0.8710462487105408    0.8711317531391406 C
   0.3772908491251351    0.1210462487105408    0.1211317531391405 C
   0.3772908491251352    0.1210462487105408    0.3711317531391405 C
   0.3772908491251352    0.1210462487105408    0.6211317531391405 C
   0.3772908491251352    0.1210462487105408    0.8711317531391406 C
   0.3772908491251351    0.3710462487105408    0.1211317531391405 C
   0.3772908491251352    0.3710462487105408    0.3711317531391405 C
   0.3772908491251352    0.3710462487105408    0.6211317531391405 C
   0.3772908491251352    0.3710462487105408    0.8711317531391406 C
   0.3772908491251351    0.6210462487105408    0.1211317531391405 C
   0.3772908491251352    0.6210462487105408    0.3711317531391405 C
   0.3772908491251352    0.6210462487105408    0.6211317531391405 C
   0.3772908491251352    0.6210462487105408    0.8711317531391406 C
   0.3772908491251351    0.8710462487105408    0.1211317531391405 C
   0.3772908491251352    0.8710462487105408    0.3711317531391405 C
   0.3772908491251352    0.8710462487105408    0.6211317531391405 C
   0.3772908491251352    0.8710462487105408    0.8711317531391406 C
   0.6272908491251352    0.1210462487105408    0.1211317531391405 C
   0.6272908491251352    0.1210462487105408    0.3711317531391405 C
   0.6272908491251351    0.1210462487105408    0.6211317531391406 C
   0.6272908491251351    0.1210462487105408    0.8711317531391406 C
   0.6272908491251352    0.3710462487105408    0.1211317531391405 C
   0.6272908491251352    0.3710462487105408    0.3711317531391405 C
   0.6272908491251351    0.3710462487105408    0.6211317531391406 C
   0.6272908491251351    0.3710462487105408    0.8711317531391406 C
   0.6272908491251352    0.6210462487105408    0.1211317531391405 C
   0.6272908491251352    0.6210462487105408    0.3711317531391405 C
   0.6272908491251351    0.6210462487105408    0.6211317531391406 C
   0.6272908491251351    0.6210462487105408    0.8711317531391406 C
   0.6272908491251352    0.8710462487105408    0.1211317531391405 C
   0.6272908491251352    0.8710462487105408    0.3711317531391405 C
   0.6272908491251351    0.8710462487105408    0.6211317531391406 C
   0.6272908491251351    0.8710462487105408    0.8711317531391406 C
   0.8772908491251352    0.1210462487105408    0.1211317531391405 C
   0.8772908491251352    0.1210462487105408    0.3711317531391405 C
   0.8772908491251352    0.1210462487105408    0.6211317531391405 C
   0.8772908491251352    0.1210462487105408    0.8711317531391407 C