H320 Pb64 C64 I80 Br112 N128
1.0
  24.1053515515716867    0.0000000000000000    0.0000000892331945
   0.0000000000000000   24.6676197466652241    0.0000000000000000
  -0.0000031898352367    0.0000000000000000   24.8748944363592202
H Pb C I Br N
320 64 64 80 112 128
direct
   0.1741029042966319    0.1221501373114615    0.1222124972311744 H
   0.1293390730252880    0.1221501373114615    0.0423948175231465 H
   0.0619912071405401    0.1221501373114615    0.0698012935674586 H
   0.0619912075136517    0.1221501373114615    0.1746237002642763 H
   0.1293390735935044    0.1221501373114615    0.2020301766874115 H
   0.1741029042966319    0.1221501373114615    0.3722124972311744 H
   0.1293390730252880    0.1221501373114615    0.2923948175231465 H
   0.0619912071405401    0.1221501373114615    0.3198012935674586 H
   0.0619912075136517    0.1221501373114615    0.4246237002642764 H
   0.1293390735935044    0.1221501373114615    0.4520301766874115 H
   0.1741029042966319    0.1221501373114615    0.6222124972311744 H
   0.1293390730252880    0.1221501373114615    0.5423948175231466 H
   0.0619912071405401    0.1221501373114615    0.5698012935674586 H
   0.0619912075136517    0.1221501373114615    0.6746237002642763 H
   0.1293390735935044    0.1221501373114615    0.7020301766874115 H
   0.1741029042966319    0.1221501373114615    0.8722124972311743 H
   0.1293390730252880    0.1221501373114615    0.7923948175231466 H
   0.0619912071405401    0.1221501373114615    0.8198012935674587 H
   0.0619912075136517    0.1221501373114615    0.9246237002642762 H
   0.1293390735935044    0.1221501373114615    0.9520301766874115 H
   0.1741029042966319    0.3721501373114615    0.1222124972311744 H
   0.1293390730252880    0.3721501373114615    0.0423948175231465 H
   0.0619912071405401    0.3721501373114615    0.0698012935674586 H
   0.0619912075136517    0.3721501373114615    0.1746237002642763 H
   0.1293390735935044    0.3721501373114615    0.2020301766874115 H
   0.1741029042966319    0.3721501373114615    0.3722124972311744 H
   0.1293390730252880    0.3721501373114615    0.2923948175231465 H
   0.0619912071405401    0.3721501373114615    0.3198012935674586 H
   0.0619912075136517    0.3721501373114615    0.4246237002642764 H
   0.1293390735935044    0.3721501373114615    0.4520301766874115 H
   0.1741029042966319    0.3721501373114615    0.6222124972311744 H
   0.1293390730252880    0.3721501373114615    0.5423948175231466 H
   0.0619912071405401    0.3721501373114615    0.5698012935674586 H
   0.0619912075136517    0.3721501373114615    0.6746237002642763 H
   0.1293390735935044    0.3721501373114615    0.7020301766874115 H
   0.1741029042966319    0.3721501373114615    0.8722124972311743 H
   0.1293390730252880    0.3721501373114615    0.7923948175231466 H
   0.0619912071405401    0.3721501373114615    0.8198012935674587 H
   0.0619912075136517    0.3721501373114615    0.9246237002642762 H
   0.1293390735935044    0.3721501373114615    0.9520301766874115 H
   0.1741029042966319    0.6221501373114615    0.1222124972311744 H
   0.1293390730252880    0.6221501373114615    0.0423948175231465 H
   0.0619912071405401    0.6221501373114615    0.0698012935674586 H
   0.0619912075136517    0.6221501373114615    0.1746237002642763 H
   0.1293390735935044    0.6221501373114615    0.2020301766874115 H
   0.1741029042966319    0.6221501373114615    0.3722124972311744 H
   0.1293390730252880    0.6221501373114615    0.2923948175231465 H
   0.0619912071405401    0.6221501373114615    0.3198012935674586 H
   0.0619912075136517    0.6221501373114615    0.4246237002642764 H
   0.1293390735935044    0.6221501373114615    0.4520301766874115 H
   0.1741029042966319    0.6221501373114615    0.6222124972311744 H
   0.1293390730252880    0.6221501373114615    0.5423948175231466 H
   0.0619912071405401    0.6221501373114615    0.5698012935674586 H
   0.0619912075136517    0.6221501373114615    0.6746237002642763 H
   0.1293390735935044    0.6221501373114615    0.7020301766874115 H
   0.1741029042966319    0.6221501373114615    0.8722124972311743 H
   0.1293390730252880    0.6221501373114615    0.7923948175231466 H
   0.0619912071405401    0.6221501373114615    0.8198012935674587 H
   0.0619912075136517    0.6221501373114615    0.9246237002642762 H
   0.1293390735935044    0.6221501373114615    0.9520301766874115 H
   0.1741029042966319    0.8721501373114614    0.1222124972311744 H
   0.1293390730252880    0.8721501373114614    0.0423948175231465 H
   0.0619912071405401    0.8721501373114614    0.0698012935674586 H
   0.0619912075136517    0.8721501373114614    0.1746237002642763 H
   0.1293390735935044    0.8721501373114614    0.2020301766874115 H
   0.1741029042966319    0.8721501373114614    0.3722124972311744 H
   0.1293390730252880    0.8721501373114614    0.2923948175231465 H
   0.0619912071405401    0.8721501373114614    0.3198012935674586 H
   0.0619912075136517    0.8721501373114614    0.4246237002642764 H
   0.1293390735935044    0.8721501373114614    0.4520301766874115 H
   0.1741029042966319    0.8721501373114614    0.6222124972311744 H
   0.1293390730252880    0.8721501373114614    0.5423948175231466 H
   0.0619912071405401    0.8721501373114614    0.5698012935674586 H
   0.0619912075136517    0.8721501373114614    0.6746237002642763 H
   0.1293390735935044    0.8721501373114614    0.7020301766874115 H
   0.1741029042966319    0.8721501373114614    0.8722124972311743 H
   0.1293390730252880    0.8721501373114614    0.7923948175231466 H
   0.0619912071405401    0.8721501373114614    0.8198012935674587 H
   0.0619912075136517    0.8721501373114614    0.9246237002642762 H
   0.1293390735935044    0.8721501373114614    0.9520301766874115 H
   0.4241029042966319    0.1221501373114615    0.1222124972311744 H
   0.3793390730252880    0.1221501373114615    0.0423948175231465 H
   0.3119912071405401    0.1221501373114615    0.0698012935674586 H
   0.3119912075136518    0.1221501373114615    0.1746237002642763 H
   0.3793390735935044    0.1221501373114615    0.2020301766874115 H
   0.4241029042966319    0.1221501373114615    0.3722124972311744 H
   0.3793390730252880    0.1221501373114615    0.2923948175231464 H
   0.3119912071405401    0.1221501373114615    0.3198012935674586 H
   0.3119912075136517    0.1221501373114615    0.4246237002642763 H
   0.3793390735935044    0.1221501373114615    0.4520301766874115 H
   0.4241029042966319    0.1221501373114615    0.6222124972311744 H
   0.3793390730252880    0.1221501373114615    0.5423948175231466 H
   0.3119912071405401    0.1221501373114615    0.5698012935674587 H
   0.3119912075136518    0.1221501373114615    0.6746237002642763 H
   0.3793390735935044    0.1221501373114615    0.7020301766874115 H
   0.4241029042966319    0.1221501373114615    0.8722124972311744 H
   0.3793390730252880    0.1221501373114615    0.7923948175231466 H
   0.3119912071405401    0.1221501373114615    0.8198012935674587 H
   0.3119912075136517    0.1221501373114615    0.9246237002642763 H
   0.3793390735935044    0.1221501373114615    0.9520301766874115 H
   0.4241029042966319    0.3721501373114615    0.1222124972311744 H
   0.3793390730252880    0.3721501373114615    0.0423948175231465 H
   0.3119912071405401    0.3721501373114615    0.0698012935674586 H
   0.3119912075136518    0.3721501373114615    0.1746237002642763 H
   0.3793390735935044    0.3721501373114615    0.2020301766874115 H
   0.4241029042966319    0.3721501373114615    0.3722124972311744 H
   0.3793390730252880    0.3721501373114615    0.2923948175231464 H
   0.3119912071405401    0.3721501373114615    0.3198012935674586 H
   0.3119912075136517    0.3721501373114615    0.4246237002642763 H
   0.3793390735935044    0.3721501373114615    0.4520301766874115 H
   0.4241029042966319    0.3721501373114615    0.6222124972311744 H
   0.3793390730252880    0.3721501373114615    0.5423948175231466 H
   0.3119912071405401    0.3721501373114615    0.5698012935674587 H
   0.3119912075136518    0.3721501373114615    0.6746237002642763 H
   0.3793390735935044    0.3721501373114615    0.7020301766874115 H
   0.4241029042966319    0.3721501373114615    0.8722124972311744 H
   0.3793390730252880    0.3721501373114615    0.7923948175231466 H
   0.3119912071405401    0.3721501373114615    0.8198012935674587 H
   0.3119912075136517    0.3721501373114615    0.9246237002642763 H
   0.3793390735935044    0.3721501373114615    0.9520301766874115 H
   0.4241029042966319    0.6221501373114615    0.1222124972311744 H
   0.3793390730252880    0.6221501373114615    0.0423948175231465 H
   0.3119912071405401    0.6221501373114615    0.0698012935674586 H
   0.3119912075136518    0.6221501373114615    0.1746237002642763 H
   0.3793390735935044    0.6221501373114615    0.2020301766874115 H
   0.4241029042966319    0.6221501373114615    0.3722124972311744 H
   0.3793390730252880    0.6221501373114615    0.2923948175231464 H
   0.3119912071405401    0.6221501373114615    0.3198012935674586 H
   0.3119912075136517    0.6221501373114615    0.4246237002642763 H
   0.3793390735935044    0.6221501373114615    0.4520301766874115 H
   0.4241029042966319    0.6221501373114615    0.6222124972311744 H
   0.3793390730252880    0.6221501373114615    0.5423948175231466 H
   0.3119912071405401    0.6221501373114615    0.5698012935674587 H
   0.3119912075136518    0.6221501373114615    0.6746237002642763 H
   0.3793390735935044    0.6221501373114615    0.7020301766874115 H
   0.4241029042966319    0.6221501373114615    0.8722124972311744 H
   0.3793390730252880    0.6221501373114615    0.7923948175231466 H
   0.3119912071405401    0.6221501373114615    0.8198012935674587 H
   0.3119912075136517    0.6221501373114615    0.9246237002642763 H
   0.3793390735935044    0.6221501373114615    0.9520301766874115 H
   0.4241029042966319    0.8721501373114614    0.1222124972311744 H
   0.3793390730252880    0.8721501373114614    0.0423948175231465 H
   0.3119912071405401    0.8721501373114614    0.0698012935674586 H
   0.3119912075136518    0.8721501373114614    0.1746237002642763 H
   0.3793390735935044    0.8721501373114614    0.2020301766874115 H
   0.4241029042966319    0.8721501373114614    0.3722124972311744 H
   0.3793390730252880    0.8721501373114614    0.2923948175231464 H
   0.3119912071405401    0.8721501373114614    0.3198012935674586 H
   0.3119912075136517    0.8721501373114614    0.4246237002642763 H
   0.3793390735935044    0.8721501373114614    0.4520301766874115 H
   0.4241029042966319    0.8721501373114614    0.6222124972311744 H
   0.3793390730252880    0.8721501373114614    0.5423948175231466 H
   0.3119912071405401    0.8721501373114614    0.5698012935674587 H
   0.3119912075136518    0.8721501373114614    0.6746237002642763 H
   0.3793390735935044    0.8721501373114614    0.7020301766874115 H
   0.4241029042966319    0.8721501373114614    0.8722124972311744 H
   0.3793390730252880    0.8721501373114614    0.7923948175231466 H
   0.3119912071405401    0.8721501373114614    0.8198012935674587 H
   0.3119912075136517    0.8721501373114614    0.9246237002642763 H
   0.3793390735935044    0.8721501373114614    0.9520301766874115 H
   0.6741029042966319    0.1221501373114615    0.1222124972311743 H
   0.6293390730252880    0.1221501373114615    0.0423948175231465 H
   0.5619912071405402    0.1221501373114615    0.0698012935674586 H
   0.5619912075136517    0.1221501373114615    0.1746237002642763 H
   0.6293390735935045    0.1221501373114615    0.2020301766874115 H
   0.6741029042966319    0.1221501373114615    0.3722124972311744 H
   0.6293390730252880    0.1221501373114615    0.2923948175231465 H
   0.5619912071405401    0.1221501373114615    0.3198012935674586 H
   0.5619912075136517    0.1221501373114615    0.4246237002642763 H
   0.6293390735935045    0.1221501373114615    0.4520301766874115 H
   0.6741029042966319    0.1221501373114615    0.6222124972311744 H
   0.6293390730252880    0.1221501373114615    0.5423948175231466 H
   0.5619912071405401    0.1221501373114615    0.5698012935674587 H
   0.5619912075136517    0.1221501373114615    0.6746237002642763 H
   0.6293390735935043    0.1221501373114615    0.7020301766874114 H
   0.6741029042966319    0.1221501373114615    0.8722124972311744 H
   0.6293390730252880    0.1221501373114615    0.7923948175231466 H
   0.5619912071405402    0.1221501373114615    0.8198012935674587 H
   0.5619912075136518    0.1221501373114615    0.9246237002642763 H
   0.6293390735935045    0.1221501373114615    0.9520301766874116 H
   0.6741029042966319    0.3721501373114615    0.1222124972311743 H
   0.6293390730252880    0.3721501373114615    0.0423948175231465 H
   0.5619912071405402    0.3721501373114615    0.0698012935674586 H
   0.5619912075136517    0.3721501373114615    0.1746237002642763 H
   0.6293390735935045    0.3721501373114615    0.2020301766874115 H
   0.6741029042966319    0.3721501373114615    0.3722124972311744 H
   0.6293390730252880    0.3721501373114615    0.2923948175231465 H
   0.5619912071405401    0.3721501373114615    0.3198012935674586 H
   0.5619912075136517    0.3721501373114615    0.4246237002642763 H
   0.6293390735935045    0.3721501373114615    0.4520301766874115 H
   0.6741029042966319    0.3721501373114615    0.6222124972311744 H
   0.6293390730252880    0.3721501373114615    0.5423948175231466 H
   0.5619912071405401    0.3721501373114615    0.5698012935674587 H
   0.5619912075136517    0.3721501373114615    0.6746237002642763 H
   0.6293390735935043    0.3721501373114615    0.7020301766874114 H
   0.6741029042966319    0.3721501373114615    0.8722124972311744 H
   0.6293390730252880    0.3721501373114615    0.7923948175231466 H
   0.5619912071405402    0.3721501373114615    0.8198012935674587 H
   0.5619912075136518    0.3721501373114615    0.9246237002642763 H
   0.6293390735935045    0.3721501373114615    0.9520301766874116 H
   0.6741029042966319    0.6221501373114615    0.1222124972311743 H
   0.6293390730252880    0.6221501373114615    0.0423948175231465 H
   0.5619912071405402    0.6221501373114615    0.0698012935674586 H
   0.5619912075136517    0.6221501373114615    0.1746237002642763 H
   0.6293390735935045    0.6221501373114615    0.2020301766874115 H
   0.6741029042966319    0.6221501373114615    0.3722124972311744 H
   0.6293390730252880    0.6221501373114615    0.2923948175231465 H
   0.5619912071405401    0.6221501373114615    0.3198012935674586 H
   0.5619912075136517    0.6221501373114615    0.4246237002642763 H
   0.6293390735935045    0.6221501373114615    0.4520301766874115 H
   0.6741029042966319    0.6221501373114615    0.6222124972311744 H
   0.6293390730252880    0.6221501373114615    0.5423948175231466 H
   0.5619912071405401    0.6221501373114615    0.5698012935674587 H
   0.5619912075136517    0.6221501373114615    0.6746237002642763 H
   0.6293390735935043    0.6221501373114615    0.7020301766874114 H
   0.6741029042966319    0.6221501373114615    0.8722124972311744 H
   0.6293390730252880    0.6221501373114615    0.7923948175231466 H
   0.5619912071405402    0.6221501373114615    0.8198012935674587 H
   0.5619912075136518    0.6221501373114615    0.9246237002642763 H
   0.6293390735935045    0.6221501373114615    0.9520301766874116 H
   0.6741029042966319    0.8721501373114614    0.1222124972311743 H
   0.6293390730252880    0.8721501373114614    0.0423948175231465 H
   0.5619912071405402    0.8721501373114614    0.0698012935674586 H
   0.5619912075136517    0.8721501373114614    0.1746237002642763 H
   0.6293390735935045    0.8721501373114614    0.2020301766874115 H
   0.6741029042966319    0.8721501373114614    0.3722124972311744 H
   0.6293390730252880    0.8721501373114614    0.2923948175231465 H
   0.5619912071405401    0.8721501373114614    0.3198012935674586 H
   0.5619912075136517    0.8721501373114614    0.4246237002642763 H
   0.6293390735935045    0.8721501373114614    0.4520301766874115 H
   0.6741029042966319    0.8721501373114614    0.6222124972311744 H
   0.6293390730252880    0.8721501373114614    0.5423948175231466 H
   0.5619912071405401    0.8721501373114614    0.5698012935674587 H
   0.5619912075136517    0.8721501373114614    0.6746237002642763 H
   0.6293390735935043    0.8721501373114614    0.7020301766874114 H
   0.6741029042966319    0.8721501373114614    0.8722124972311744 H
   0.6293390730252880    0.8721501373114614    0.7923948175231466 H
   0.5619912071405402    0.8721501373114614    0.8198012935674587 H
   0.5619912075136518    0.8721501373114614    0.9246237002642763 H
   0.6293390735935045    0.8721501373114614    0.9520301766874116 H
   0.9241029042966320    0.1221501373114615    0.1222124972311744 H
   0.8793390730252880    0.1221501373114615    0.0423948175231465 H
   0.8119912071405402    0.1221501373114615    0.0698012935674586 H
   0.8119912075136517    0.1221501373114615    0.1746237002642763 H
   0.8793390735935045    0.1221501373114615    0.2020301766874115 H
   0.9241029042966319    0.1221501373114615    0.3722124972311744 H
   0.8793390730252880    0.1221501373114615    0.2923948175231465 H
   0.8119912071405401    0.1221501373114615    0.3198012935674586 H
   0.8119912075136516    0.1221501373114615    0.4246237002642763 H
   0.8793390735935045    0.1221501373114615    0.4520301766874116 H
   0.9241029042966319    0.1221501373114615    0.6222124972311744 H
   0.8793390730252881    0.1221501373114615    0.5423948175231466 H
   0.8119912071405402    0.1221501373114615    0.5698012935674587 H
   0.8119912075136518    0.1221501373114615    0.6746237002642763 H
   0.8793390735935046    0.1221501373114615    0.7020301766874115 H
   0.9241029042966319    0.1221501373114615    0.8722124972311744 H
   0.8793390730252880    0.1221501373114615    0.7923948175231466 H
   0.8119912071405402    0.1221501373114615    0.8198012935674587 H
   0.8119912075136518    0.1221501373114615    0.9246237002642763 H
   0.8793390735935045    0.1221501373114615    0.9520301766874116 H
   0.9241029042966320    0.3721501373114615    0.1222124972311744 H
   0.8793390730252880    0.3721501373114615    0.0423948175231465 H
   0.8119912071405402    0.3721501373114615    0.0698012935674586 H
   0.8119912075136517    0.3721501373114615    0.1746237002642763 H
   0.8793390735935045    0.3721501373114615    0.2020301766874115 H
   0.9241029042966319    0.3721501373114615    0.3722124972311744 H
   0.8793390730252880    0.3721501373114615    0.2923948175231465 H
   0.8119912071405401    0.3721501373114615    0.3198012935674586 H
   0.8119912075136516    0.3721501373114615    0.4246237002642763 H
   0.8793390735935045    0.3721501373114615    0.4520301766874116 H
   0.9241029042966319    0.3721501373114615    0.6222124972311744 H
   0.8793390730252881    0.3721501373114615    0.5423948175231466 H
   0.8119912071405402    0.3721501373114615    0.5698012935674587 H
   0.8119912075136518    0.3721501373114615    0.6746237002642763 H
   0.8793390735935046    0.3721501373114615    0.7020301766874115 H
   0.9241029042966319    0.3721501373114615    0.8722124972311744 H
   0.8793390730252880    0.3721501373114615    0.7923948175231466 H
   0.8119912071405402    0.3721501373114615    0.8198012935674587 H
   0.8119912075136518    0.3721501373114615    0.9246237002642763 H
   0.8793390735935045    0.3721501373114615    0.9520301766874116 H
   0.9241029042966320    0.6221501373114615    0.1222124972311744 H
   0.8793390730252880    0.6221501373114615    0.0423948175231465 H
   0.8119912071405402    0.6221501373114615    0.0698012935674586 H
   0.8119912075136517    0.6221501373114615    0.1746237002642763 H
   0.8793390735935045    0.6221501373114615    0.2020301766874115 H
   0.9241029042966319    0.6221501373114615    0.3722124972311744 H
   0.8793390730252880    0.6221501373114615    0.2923948175231465 H
   0.8119912071405401    0.6221501373114615    0.3198012935674586 H
   0.8119912075136516    0.6221501373114615    0.4246237002642763 H
   0.8793390735935045    0.6221501373114615    0.4520301766874116 H
   0.9241029042966319    0.6221501373114615    0.6222124972311744 H
   0.8793390730252881    0.6221501373114615    0.5423948175231466 H
   0.8119912071405402    0.6221501373114615    0.5698012935674587 H
   0.8119912075136518    0.6221501373114615    0.6746237002642763 H
   0.8793390735935046    0.6221501373114615    0.7020301766874115 H
   0.9241029042966319    0.6221501373114615    0.8722124972311744 H
   0.8793390730252880    0.6221501373114615    0.7923948175231466 H
   0.8119912071405402    0.6221501373114615    0.8198012935674587 H
   0.8119912075136518    0.6221501373114615    0.9246237002642763 H
   0.8793390735935045    0.6221501373114615    0.9520301766874116 H
   0.9241029042966320    0.8721501373114614    0.1222124972311744 H
   0.8793390730252880    0.8721501373114614    0.0423948175231465 H
   0.8119912071405402    0.8721501373114614    0.0698012935674586 H
   0.8119912075136517    0.8721501373114614    0.1746237002642763 H
   0.8793390735935045    0.8721501373114614    0.2020301766874115 H
   0.9241029042966319    0.8721501373114614    0.3722124972311744 H
   0.8793390730252880    0.8721501373114614    0.2923948175231465 H
   0.8119912071405401    0.8721501373114614    0.3198012935674586 H
   0.8119912075136516    0.8721501373114614    0.4246237002642763 H
   0.8793390735935045    0.8721501373114614    0.4520301766874116 H
   0.9241029042966319    0.8721501373114614    0.6222124972311744 H
   0.8793390730252881    0.8721501373114614    0.5423948175231466 H
   0.8119912071405402    0.8721501373114614    0.5698012935674587 H
   0.8119912075136518    0.8721501373114614    0.6746237002642763 H
   0.8793390735935046    0.8721501373114614    0.7020301766874115 H
   0.9241029042966319    0.8721501373114614    0.8722124972311744 H
   0.8793390730252880    0.8721501373114614    0.7923948175231466 H
   0.8119912071405402    0.8721501373114614    0.8198012935674587 H
   0.8119912075136518    0.8721501373114614    0.9246237002642763 H
   0.8793390735935045    0.8721501373114614    0.9520301766874116 H
   0.2322113314162040    0.0000000000000000    0.0000000006530795 Pb
   0.2322113314162040    0.0000000000000000    0.2500000006530795 Pb
   0.2322113314162040    0.0000000000000000    0.5000000006530795 Pb
   0.2322113314162040    0.0000000000000000    0.7500000006530795 Pb
   0.2322113314162040    0.2500000000000000    0.0000000006530795 Pb
   0.2322113314162040    0.2500000000000000    0.2500000006530795 Pb
   0.2322113314162040    0.2500000000000000    0.5000000006530795 Pb
   0.2322113314162040    0.2500000000000000    0.7500000006530795 Pb
   0.2322113314162040    0.5000000000000000    0.0000000006530795 Pb
   0.2322113314162040    0.5000000000000000    0.2500000006530795 Pb
   0.2322113314162040    0.5000000000000000    0.5000000006530795 Pb
   0.2322113314162040    0.5000000000000000    0.7500000006530795 Pb
   0.2322113314162040    0.7500000000000000    0.0000000006530795 Pb
   0.2322113314162040    0.7500000000000000    0.2500000006530795 Pb
   0.2322113314162040    0.7500000000000000    0.5000000006530795 Pb
   0.2322113314162040    0.7500000000000000    0.7500000006530795 Pb
   0.4822113314162040    0.0000000000000000    0.0000000006530795 Pb
   0.4822113314162040    0.0000000000000000    0.2500000006530795 Pb
   0.4822113314162040    0.0000000000000000    0.5000000006530796 Pb
   0.4822113314162039    0.0000000000000000    0.7500000006530795 Pb
   0.4822113314162040    0.2500000000000000    0.0000000006530795 Pb
   0.4822113314162040    0.2500000000000000    0.2500000006530795 Pb
   0.4822113314162040    0.2500000000000000    0.5000000006530796 Pb
   0.4822113314162039    0.2500000000000000    0.7500000006530795 Pb
   0.4822113314162040    0.5000000000000000    0.0000000006530795 Pb
   0.4822113314162040    0.5000000000000000    0.2500000006530795 Pb
   0.4822113314162040    0.5000000000000000    0.5000000006530796 Pb
   0.4822113314162039    0.5000000000000000    0.7500000006530795 Pb
   0.4822113314162040    0.7500000000000000    0.0000000006530795 Pb
   0.4822113314162040    0.7500000000000000    0.2500000006530795 Pb
   0.4822113314162040    0.7500000000000000    0.5000000006530796 Pb
   0.4822113314162039    0.7500000000000000    0.7500000006530795 Pb
   0.7322113314162039    0.0000000000000000    0.0000000006530795 Pb
   0.7322113314162041    0.0000000000000000    0.2500000006530795 Pb
   0.7322113314162040    0.0000000000000000    0.5000000006530795 Pb
   0.7322113314162041    0.0000000000000000    0.7500000006530795 Pb
   0.7322113314162039    0.2500000000000000    0.0000000006530795 Pb
   0.7322113314162041    0.2500000000000000    0.2500000006530795 Pb
   0.7322113314162040    0.2500000000000000    0.5000000006530795 Pb
   0.7322113314162041    0.2500000000000000    0.7500000006530795 Pb
   0.7322113314162039    0.5000000000000000    0.0000000006530795 Pb
   0.7322113314162041    0.5000000000000000    0.2500000006530795 Pb
   0.7322113314162040    0.5000000000000000    0.5000000006530795 Pb
   0.7322113314162041    0.5000000000000000    0.7500000006530795 Pb
   0.7322113314162039    0.7500000000000000    0.0000000006530795 Pb
   0.7322113314162041    0.7500000000000000    0.2500000006530795 Pb
   0.7322113314162040    0.7500000000000000    0.5000000006530795 Pb
   0.7322113314162041    0.7500000000000000    0.7500000006530795 Pb
   0.9822113314162039    0.0000000000000000    0.0000000006530795 Pb
   0.9822113314162039    0.0000000000000000    0.2500000006530795 Pb
   0.9822113314162041    0.0000000000000000    0.5000000006530795 Pb
   0.9822113314162041    0.0000000000000000    0.7500000006530795 Pb
   0.9822113314162039    0.2500000000000000    0.0000000006530795 Pb
   0.9822113314162039    0.2500000000000000    0.2500000006530795 Pb
   0.9822113314162041    0.2500000000000000    0.5000000006530795 Pb
   0.9822113314162041    0.2500000000000000    0.7500000006530795 Pb
   0.9822113314162039    0.5000000000000000    0.0000000006530795 Pb
   0.9822113314162039    0.5000000000000000    0.2500000006530795 Pb
   0.9822113314162041    0.5000000000000000    0.5000000006530795 Pb
   0.9822113314162041    0.5000000000000000    0.7500000006530795 Pb
   0.9822113314162039    0.7500000000000000    0.0000000006530795 Pb
   0.9822113314162039    0.7500000000000000    0.2500000006530795 Pb
   0.9822113314162041    0.7500000000000000    0.5000000006530795 Pb
   0.9822113314162041    0.7500000000000000    0.7500000006530795 Pb
   0.1286379009216330    0.1221501373114615    0.1222122495007880 C
   0.1286379009216330    0.1221501373114615    0.3722122495007881 C
   0.1286379009216330    0.1221501373114615    0.6222122495007881 C
   0.1286379009216330    0.1221501373114615    0.8722122495007881 C
   0.1286379009216330    0.3721501373114615    0.1222122495007880 C
   0.1286379009216330    0.3721501373114615    0.3722122495007881 C
   0.1286379009216330    0.3721501373114615    0.6222122495007881 C
   0.1286379009216330    0.3721501373114615    0.8722122495007881 C
   0.1286379009216330    0.6221501373114615    0.1222122495007880 C
   0.1286379009216330    0.6221501373114615    0.3722122495007881 C
   0.1286379009216330    0.6221501373114615    0.6222122495007881 C
   0.1286379009216330    0.6221501373114615    0.8722122495007881 C
   0.1286379009216330    0.8721501373114614    0.1222122495007880 C
   0.1286379009216330    0.8721501373114614    0.3722122495007881 C
   0.1286379009216330    0.8721501373114614    0.6222122495007881 C
   0.1286379009216330    0.8721501373114614    0.8722122495007881 C
   0.3786379009216331    0.1221501373114615    0.1222122495007881 C
   0.3786379009216330    0.1221501373114615    0.3722122495007881 C
   0.3786379009216331    0.1221501373114615    0.6222122495007881 C
   0.3786379009216330    0.1221501373114615    0.8722122495007881 C
   0.3786379009216331    0.3721501373114615    0.1222122495007881 C
   0.3786379009216330    0.3721501373114615    0.3722122495007881 C
   0.3786379009216331    0.3721501373114615    0.6222122495007881 C
   0.3786379009216330    0.3721501373114615    0.8722122495007881 C
   0.3786379009216331    0.6221501373114615    0.1222122495007881 C
   0.3786379009216330    0.6221501373114615    0.3722122495007881 C
   0.3786379009216331    0.6221501373114615    0.6222122495007881 C
   0.3786379009216330    0.6221501373114615    0.8722122495007881 C
   0.3786379009216331    0.8721501373114614    0.1222122495007881 C
   0.3786379009216330    0.8721501373114614    0.3722122495007881 C
   0.3786379009216331    0.8721501373114614    0.6222122495007881 C
   0.3786379009216330    0.8721501373114614    0.8722122495007881 C
   0.6286379009216331    0.1221501373114615    0.1222122495007880 C
   0.6286379009216331    0.1221501373114615    0.3722122495007881 C
   0.6286379009216330    0.1221501373114615    0.6222122495007881 C
   0.6286379009216331    0.1221501373114615    0.8722122495007881 C
   0.6286379009216331    0.3721501373114615    0.1222122495007880 C
   0.6286379009216331    0.3721501373114615    0.3722122495007881 C
   0.6286379009216330    0.3721501373114615    0.6222122495007881 C
   0.6286379009216331    0.3721501373114615    0.8722122495007881 C
   0.6286379009216331    0.6221501373114615    0.1222122495007880 C
   0.6286379009216331    0.6221501373114615    0.3722122495007881 C
   0.6286379009216330    0.6221501373114615    0.6222122495007881 C
   0.6286379009216331    0.6221501373114615    0.8722122495007881 C
   0.6286379009216331    0.8721501373114614    0.1222122495007880 C
   0.6286379009216331    0.8721501373114614    0.3722122495007881 C
   0.6286379009216330    0.8721501373114614    0.6222122495007881 C
   0.6286379009216331    0.8721501373114614    0.8722122495007881 C
   0.8786379009216331    0.1221501373114615    0.1222122495007880 C
   0.8786379009216331    0.1221501373114615    0.3722122495007881 C
   0.8786379009216332    0.1221501373114615    0.6222122495007881 C
   0.8786379009216331    0.1221501373114615    0.8722122495007881 C