H320 Pb64 C64 I32 Br160 N128
1.0
  23.7227102061737369    0.0000000000000000    0.0000001286816515
   0.0000000000000000   24.3301829668360554    0.0000000000000000
  -0.0000030968219386    0.0000000000000000   24.5420679597400024
H Pb C I Br N
320 64 64 32 160 128
direct
   0.1769111400641304    0.1238442449573536    0.1238698778434990 H
   0.1314252796316155    0.1238442449573536    0.0429697532781777 H
   0.0629911095604564    0.1238442449573536    0.0707479014924918 H
   0.0629911097141650    0.1238442449573536    0.1769918539347161 H
   0.1314252798657002    0.1238442449573536    0.2047700023050917 H
   0.1769111400641304    0.1238442449573536    0.3738698778434991 H
   0.1314252796316154    0.1238442449573536    0.2929697532781777 H
   0.0629911095604564    0.1238442449573536    0.3207479014924918 H
   0.0629911097141650    0.1238442449573536    0.4269918539347162 H
   0.1314252798657002    0.1238442449573536    0.4547700023050917 H
   0.1769111400641304    0.1238442449573536    0.6238698778434990 H
   0.1314252796316155    0.1238442449573536    0.5429697532781776 H
   0.0629911095604564    0.1238442449573536    0.5707479014924918 H
   0.0629911097141650    0.1238442449573536    0.6769918539347162 H
   0.1314252798657002    0.1238442449573536    0.7047700023050918 H
   0.1769111400641304    0.1238442449573536    0.8738698778434991 H
   0.1314252796316155    0.1238442449573536    0.7929697532781778 H
   0.0629911095604564    0.1238442449573536    0.8207479014924919 H
   0.0629911097141650    0.1238442449573536    0.9269918539347162 H
   0.1314252798657002    0.1238442449573536    0.9547700023050918 H
   0.1769111400641304    0.3738442449573536    0.1238698778434990 H
   0.1314252796316155    0.3738442449573536    0.0429697532781777 H
   0.0629911095604564    0.3738442449573536    0.0707479014924918 H
   0.0629911097141650    0.3738442449573536    0.1769918539347161 H
   0.1314252798657002    0.3738442449573536    0.2047700023050917 H
   0.1769111400641304    0.3738442449573536    0.3738698778434991 H
   0.1314252796316154    0.3738442449573536    0.2929697532781777 H
   0.0629911095604564    0.3738442449573536    0.3207479014924918 H
   0.0629911097141650    0.3738442449573536    0.4269918539347162 H
   0.1314252798657002    0.3738442449573536    0.4547700023050917 H
   0.1769111400641304    0.3738442449573536    0.6238698778434990 H
   0.1314252796316155    0.3738442449573536    0.5429697532781776 H
   0.0629911095604564    0.3738442449573536    0.5707479014924918 H
   0.0629911097141650    0.3738442449573536    0.6769918539347162 H
   0.1314252798657002    0.3738442449573536    0.7047700023050918 H
   0.1769111400641304    0.3738442449573536    0.8738698778434991 H
   0.1314252796316155    0.3738442449573536    0.7929697532781778 H
   0.0629911095604564    0.3738442449573536    0.8207479014924919 H
   0.0629911097141650    0.3738442449573536    0.9269918539347162 H
   0.1314252798657002    0.3738442449573536    0.9547700023050918 H
   0.1769111400641304    0.6238442449573536    0.1238698778434990 H
   0.1314252796316155    0.6238442449573536    0.0429697532781777 H
   0.0629911095604564    0.6238442449573536    0.0707479014924918 H
   0.0629911097141650    0.6238442449573536    0.1769918539347161 H
   0.1314252798657002    0.6238442449573536    0.2047700023050917 H
   0.1769111400641304    0.6238442449573536    0.3738698778434991 H
   0.1314252796316154    0.6238442449573536    0.2929697532781777 H
   0.0629911095604564    0.6238442449573536    0.3207479014924918 H
   0.0629911097141650    0.6238442449573536    0.4269918539347162 H
   0.1314252798657002    0.6238442449573536    0.4547700023050917 H
   0.1769111400641304    0.6238442449573536    0.6238698778434990 H
   0.1314252796316155    0.6238442449573536    0.5429697532781776 H
   0.0629911095604564    0.6238442449573536    0.5707479014924918 H
   0.0629911097141650    0.6238442449573536    0.6769918539347162 H
   0.1314252798657002    0.6238442449573536    0.7047700023050918 H
   0.1769111400641304    0.6238442449573536    0.8738698778434991 H
   0.1314252796316155    0.6238442449573536    0.7929697532781778 H
   0.0629911095604564    0.6238442449573536    0.8207479014924919 H
   0.0629911097141650    0.6238442449573536    0.9269918539347162 H
   0.1314252798657002    0.6238442449573536    0.9547700023050918 H
   0.1769111400641304    0.8738442449573536    0.1238698778434990 H
   0.1314252796316155    0.8738442449573536    0.0429697532781777 H
   0.0629911095604564    0.8738442449573536    0.0707479014924918 H
   0.0629911097141650    0.8738442449573536    0.1769918539347161 H
   0.1314252798657002    0.8738442449573536    0.2047700023050917 H
   0.1769111400641304    0.8738442449573536    0.3738698778434991 H
   0.1314252796316154    0.8738442449573536    0.2929697532781777 H
   0.0629911095604564    0.8738442449573536    0.3207479014924918 H
   0.0629911097141650    0.8738442449573536    0.4269918539347162 H
   0.1314252798657002    0.8738442449573536    0.4547700023050917 H
   0.1769111400641304    0.8738442449573536    0.6238698778434990 H
   0.1314252796316155    0.8738442449573536    0.5429697532781776 H
   0.0629911095604564    0.8738442449573536    0.5707479014924918 H
   0.0629911097141650    0.8738442449573536    0.6769918539347162 H
   0.1314252798657002    0.8738442449573536    0.7047700023050918 H
   0.1769111400641304    0.8738442449573536    0.8738698778434991 H
   0.1314252796316155    0.8738442449573536    0.7929697532781778 H
   0.0629911095604564    0.8738442449573536    0.8207479014924919 H
   0.0629911097141650    0.8738442449573536    0.9269918539347162 H
   0.1314252798657002    0.8738442449573536    0.9547700023050918 H
   0.4269111400641304    0.1238442449573536    0.1238698778434991 H
   0.3814252796316154    0.1238442449573536    0.0429697532781777 H
   0.3129911095604564    0.1238442449573536    0.0707479014924918 H
   0.3129911097141650    0.1238442449573536    0.1769918539347161 H
   0.3814252798657001    0.1238442449573536    0.2047700023050917 H
   0.4269111400641304    0.1238442449573536    0.3738698778434990 H
   0.3814252796316155    0.1238442449573536    0.2929697532781776 H
   0.3129911095604564    0.1238442449573536    0.3207479014924918 H
   0.3129911097141650    0.1238442449573536    0.4269918539347162 H
   0.3814252798657001    0.1238442449573536    0.4547700023050917 H
   0.4269111400641304    0.1238442449573536    0.6238698778434990 H
   0.3814252796316155    0.1238442449573536    0.5429697532781776 H
   0.3129911095604564    0.1238442449573536    0.5707479014924918 H
   0.3129911097141651    0.1238442449573536    0.6769918539347161 H
   0.3814252798657002    0.1238442449573536    0.7047700023050918 H
   0.4269111400641304    0.1238442449573536    0.8738698778434990 H
   0.3814252796316154    0.1238442449573536    0.7929697532781778 H
   0.3129911095604564    0.1238442449573536    0.8207479014924919 H
   0.3129911097141650    0.1238442449573536    0.9269918539347161 H
   0.3814252798657002    0.1238442449573536    0.9547700023050919 H
   0.4269111400641304    0.3738442449573536    0.1238698778434991 H
   0.3814252796316154    0.3738442449573536    0.0429697532781777 H
   0.3129911095604564    0.3738442449573536    0.0707479014924918 H
   0.3129911097141650    0.3738442449573536    0.1769918539347161 H
   0.3814252798657001    0.3738442449573536    0.2047700023050917 H
   0.4269111400641304    0.3738442449573536    0.3738698778434990 H
   0.3814252796316155    0.3738442449573536    0.2929697532781776 H
   0.3129911095604564    0.3738442449573536    0.3207479014924918 H
   0.3129911097141650    0.3738442449573536    0.4269918539347162 H
   0.3814252798657001    0.3738442449573536    0.4547700023050917 H
   0.4269111400641304    0.3738442449573536    0.6238698778434990 H
   0.3814252796316155    0.3738442449573536    0.5429697532781776 H
   0.3129911095604564    0.3738442449573536    0.5707479014924918 H
   0.3129911097141651    0.3738442449573536    0.6769918539347161 H
   0.3814252798657002    0.3738442449573536    0.7047700023050918 H
   0.4269111400641304    0.3738442449573536    0.8738698778434990 H
   0.3814252796316154    0.3738442449573536    0.7929697532781778 H
   0.3129911095604564    0.3738442449573536    0.8207479014924919 H
   0.3129911097141650    0.3738442449573536    0.9269918539347161 H
   0.3814252798657002    0.3738442449573536    0.9547700023050919 H
   0.4269111400641304    0.6238442449573536    0.1238698778434991 H
   0.3814252796316154    0.6238442449573536    0.0429697532781777 H
   0.3129911095604564    0.6238442449573536    0.0707479014924918 H
   0.3129911097141650    0.6238442449573536    0.1769918539347161 H
   0.3814252798657001    0.6238442449573536    0.2047700023050917 H
   0.4269111400641304    0.6238442449573536    0.3738698778434990 H
   0.3814252796316155    0.6238442449573536    0.2929697532781776 H
   0.3129911095604564    0.6238442449573536    0.3207479014924918 H
   0.3129911097141650    0.6238442449573536    0.4269918539347162 H
   0.3814252798657001    0.6238442449573536    0.4547700023050917 H
   0.4269111400641304    0.6238442449573536    0.6238698778434990 H
   0.3814252796316155    0.6238442449573536    0.5429697532781776 H
   0.3129911095604564    0.6238442449573536    0.5707479014924918 H
   0.3129911097141651    0.6238442449573536    0.6769918539347161 H
   0.3814252798657002    0.6238442449573536    0.7047700023050918 H
   0.4269111400641304    0.6238442449573536    0.8738698778434990 H
   0.3814252796316154    0.6238442449573536    0.7929697532781778 H
   0.3129911095604564    0.6238442449573536    0.8207479014924919 H
   0.3129911097141650    0.6238442449573536    0.9269918539347161 H
   0.3814252798657002    0.6238442449573536    0.9547700023050919 H
   0.4269111400641304    0.8738442449573536    0.1238698778434991 H
   0.3814252796316154    0.8738442449573536    0.0429697532781777 H
   0.3129911095604564    0.8738442449573536    0.0707479014924918 H
   0.3129911097141650    0.8738442449573536    0.1769918539347161 H
   0.3814252798657001    0.8738442449573536    0.2047700023050917 H
   0.4269111400641304    0.8738442449573536    0.3738698778434990 H
   0.3814252796316155    0.8738442449573536    0.2929697532781776 H
   0.3129911095604564    0.8738442449573536    0.3207479014924918 H
   0.3129911097141650    0.8738442449573536    0.4269918539347162 H
   0.3814252798657001    0.8738442449573536    0.4547700023050917 H
   0.4269111400641304    0.8738442449573536    0.6238698778434990 H
   0.3814252796316155    0.8738442449573536    0.5429697532781776 H
   0.3129911095604564    0.8738442449573536    0.5707479014924918 H
   0.3129911097141651    0.8738442449573536    0.6769918539347161 H
   0.3814252798657002    0.8738442449573536    0.7047700023050918 H
   0.4269111400641304    0.8738442449573536    0.8738698778434990 H
   0.3814252796316154    0.8738442449573536    0.7929697532781778 H
   0.3129911095604564    0.8738442449573536    0.8207479014924919 H
   0.3129911097141650    0.8738442449573536    0.9269918539347161 H
   0.3814252798657002    0.8738442449573536    0.9547700023050919 H
   0.6769111400641303    0.1238442449573536    0.1238698778434990 H
   0.6314252796316154    0.1238442449573536    0.0429697532781777 H
   0.5629911095604564    0.1238442449573536    0.0707479014924918 H
   0.5629911097141650    0.1238442449573536    0.1769918539347161 H
   0.6314252798657002    0.1238442449573536    0.2047700023050917 H
   0.6769111400641304    0.1238442449573536    0.3738698778434990 H
   0.6314252796316154    0.1238442449573536    0.2929697532781777 H
   0.5629911095604565    0.1238442449573536    0.3207479014924918 H
   0.5629911097141650    0.1238442449573536    0.4269918539347161 H
   0.6314252798657002    0.1238442449573536    0.4547700023050918 H
   0.6769111400641304    0.1238442449573536    0.6238698778434991 H
   0.6314252796316154    0.1238442449573536    0.5429697532781776 H
   0.5629911095604565    0.1238442449573536    0.5707479014924918 H
   0.5629911097141650    0.1238442449573536    0.6769918539347162 H
   0.6314252798657001    0.1238442449573536    0.7047700023050917 H
   0.6769111400641303    0.1238442449573536    0.8738698778434991 H
   0.6314252796316154    0.1238442449573536    0.7929697532781778 H
   0.5629911095604564    0.1238442449573536    0.8207479014924919 H
   0.5629911097141650    0.1238442449573536    0.9269918539347162 H
   0.6314252798657001    0.1238442449573536    0.9547700023050918 H
   0.6769111400641303    0.3738442449573536    0.1238698778434990 H
   0.6314252796316154    0.3738442449573536    0.0429697532781777 H
   0.5629911095604564    0.3738442449573536    0.0707479014924918 H
   0.5629911097141650    0.3738442449573536    0.1769918539347161 H
   0.6314252798657002    0.3738442449573536    0.2047700023050917 H
   0.6769111400641304    0.3738442449573536    0.3738698778434990 H
   0.6314252796316154    0.3738442449573536    0.2929697532781777 H
   0.5629911095604565    0.3738442449573536    0.3207479014924918 H
   0.5629911097141650    0.3738442449573536    0.4269918539347161 H
   0.6314252798657002    0.3738442449573536    0.4547700023050918 H
   0.6769111400641304    0.3738442449573536    0.6238698778434991 H
   0.6314252796316154    0.3738442449573536    0.5429697532781776 H
   0.5629911095604565    0.3738442449573536    0.5707479014924918 H
   0.5629911097141650    0.3738442449573536    0.6769918539347162 H
   0.6314252798657001    0.3738442449573536    0.7047700023050917 H
   0.6769111400641303    0.3738442449573536    0.8738698778434991 H
   0.6314252796316154    0.3738442449573536    0.7929697532781778 H
   0.5629911095604564    0.3738442449573536    0.8207479014924919 H
   0.5629911097141650    0.3738442449573536    0.9269918539347162 H
   0.6314252798657001    0.3738442449573536    0.9547700023050918 H
   0.6769111400641303    0.6238442449573536    0.1238698778434990 H
   0.6314252796316154    0.6238442449573536    0.0429697532781777 H
   0.5629911095604564    0.6238442449573536    0.0707479014924918 H
   0.5629911097141650    0.6238442449573536    0.1769918539347161 H
   0.6314252798657002    0.6238442449573536    0.2047700023050917 H
   0.6769111400641304    0.6238442449573536    0.3738698778434990 H
   0.6314252796316154    0.6238442449573536    0.2929697532781777 H
   0.5629911095604565    0.6238442449573536    0.3207479014924918 H
   0.5629911097141650    0.6238442449573536    0.4269918539347161 H
   0.6314252798657002    0.6238442449573536    0.4547700023050918 H
   0.6769111400641304    0.6238442449573536    0.6238698778434991 H
   0.6314252796316154    0.6238442449573536    0.5429697532781776 H
   0.5629911095604565    0.6238442449573536    0.5707479014924918 H
   0.5629911097141650    0.6238442449573536    0.6769918539347162 H
   0.6314252798657001    0.6238442449573536    0.7047700023050917 H
   0.6769111400641303    0.6238442449573536    0.8738698778434991 H
   0.6314252796316154    0.6238442449573536    0.7929697532781778 H
   0.5629911095604564    0.6238442449573536    0.8207479014924919 H
   0.5629911097141650    0.6238442449573536    0.9269918539347162 H
   0.6314252798657001    0.6238442449573536    0.9547700023050918 H
   0.6769111400641303    0.8738442449573536    0.1238698778434990 H
   0.6314252796316154    0.8738442449573536    0.0429697532781777 H
   0.5629911095604564    0.8738442449573536    0.0707479014924918 H
   0.5629911097141650    0.8738442449573536    0.1769918539347161 H
   0.6314252798657002    0.8738442449573536    0.2047700023050917 H
   0.6769111400641304    0.8738442449573536    0.3738698778434990 H
   0.6314252796316154    0.8738442449573536    0.2929697532781777 H
   0.5629911095604565    0.8738442449573536    0.3207479014924918 H
   0.5629911097141650    0.8738442449573536    0.4269918539347161 H
   0.6314252798657002    0.8738442449573536    0.4547700023050918 H
   0.6769111400641304    0.8738442449573536    0.6238698778434991 H
   0.6314252796316154    0.8738442449573536    0.5429697532781776 H
   0.5629911095604565    0.8738442449573536    0.5707479014924918 H
   0.5629911097141650    0.8738442449573536    0.6769918539347162 H
   0.6314252798657001    0.8738442449573536    0.7047700023050917 H
   0.6769111400641303    0.8738442449573536    0.8738698778434991 H
   0.6314252796316154    0.8738442449573536    0.7929697532781778 H
   0.5629911095604564    0.8738442449573536    0.8207479014924919 H
   0.5629911097141650    0.8738442449573536    0.9269918539347162 H
   0.6314252798657001    0.8738442449573536    0.9547700023050918 H
   0.9269111400641306    0.1238442449573536    0.1238698778434990 H
   0.8814252796316155    0.1238442449573536    0.0429697532781777 H
   0.8129911095604565    0.1238442449573536    0.0707479014924918 H
   0.8129911097141650    0.1238442449573536    0.1769918539347161 H
   0.8814252798657003    0.1238442449573536    0.2047700023050917 H
   0.9269111400641304    0.1238442449573536    0.3738698778434991 H
   0.8814252796316155    0.1238442449573536    0.2929697532781777 H
   0.8129911095604565    0.1238442449573536    0.3207479014924918 H
   0.8129911097141650    0.1238442449573536    0.4269918539347162 H
   0.8814252798657003    0.1238442449573536    0.4547700023050917 H
   0.9269111400641306    0.1238442449573536    0.6238698778434990 H
   0.8814252796316155    0.1238442449573536    0.5429697532781776 H
   0.8129911095604564    0.1238442449573536    0.5707479014924919 H
   0.8129911097141650    0.1238442449573536    0.6769918539347162 H
   0.8814252798657003    0.1238442449573536    0.7047700023050917 H
   0.9269111400641307    0.1238442449573536    0.8738698778434992 H
   0.8814252796316155    0.1238442449573536    0.7929697532781778 H
   0.8129911095604565    0.1238442449573536    0.8207479014924919 H
   0.8129911097141650    0.1238442449573536    0.9269918539347163 H
   0.8814252798657003    0.1238442449573536    0.9547700023050919 H
   0.9269111400641306    0.3738442449573536    0.1238698778434990 H
   0.8814252796316155    0.3738442449573536    0.0429697532781777 H
   0.8129911095604565    0.3738442449573536    0.0707479014924918 H
   0.8129911097141650    0.3738442449573536    0.1769918539347161 H
   0.8814252798657003    0.3738442449573536    0.2047700023050917 H
   0.9269111400641304    0.3738442449573536    0.3738698778434991 H
   0.8814252796316155    0.3738442449573536    0.2929697532781777 H
   0.8129911095604565    0.3738442449573536    0.3207479014924918 H
   0.8129911097141650    0.3738442449573536    0.4269918539347162 H
   0.8814252798657003    0.3738442449573536    0.4547700023050917 H
   0.9269111400641306    0.3738442449573536    0.6238698778434990 H
   0.8814252796316155    0.3738442449573536    0.5429697532781776 H
   0.8129911095604564    0.3738442449573536    0.5707479014924919 H
   0.8129911097141650    0.3738442449573536    0.6769918539347162 H
   0.8814252798657003    0.3738442449573536    0.7047700023050917 H
   0.9269111400641307    0.3738442449573536    0.8738698778434992 H
   0.8814252796316155    0.3738442449573536    0.7929697532781778 H
   0.8129911095604565    0.3738442449573536    0.8207479014924919 H
   0.8129911097141650    0.3738442449573536    0.9269918539347163 H
   0.8814252798657003    0.3738442449573536    0.9547700023050919 H
   0.9269111400641306    0.6238442449573536    0.1238698778434990 H
   0.8814252796316155    0.6238442449573536    0.0429697532781777 H
   0.8129911095604565    0.6238442449573536    0.0707479014924918 H
   0.8129911097141650    0.6238442449573536    0.1769918539347161 H
   0.8814252798657003    0.6238442449573536    0.2047700023050917 H
   0.9269111400641304    0.6238442449573536    0.3738698778434991 H
   0.8814252796316155    0.6238442449573536    0.2929697532781777 H
   0.8129911095604565    0.6238442449573536    0.3207479014924918 H
   0.8129911097141650    0.6238442449573536    0.4269918539347162 H
   0.8814252798657003    0.6238442449573536    0.4547700023050917 H
   0.9269111400641306    0.6238442449573536    0.6238698778434990 H
   0.8814252796316155    0.6238442449573536    0.5429697532781776 H
   0.8129911095604564    0.6238442449573536    0.5707479014924919 H
   0.8129911097141650    0.6238442449573536    0.6769918539347162 H
   0.8814252798657003    0.6238442449573536    0.7047700023050917 H
   0.9269111400641307    0.6238442449573536    0.8738698778434992 H
   0.8814252796316155    0.6238442449573536    0.7929697532781778 H
   0.8129911095604565    0.6238442449573536    0.8207479014924919 H
   0.8129911097141650    0.6238442449573536    0.9269918539347163 H
   0.8814252798657003    0.6238442449573536    0.9547700023050919 H
   0.9269111400641306    0.8738442449573536    0.1238698778434990 H
   0.8814252796316155    0.8738442449573536    0.0429697532781777 H
   0.8129911095604565    0.8738442449573536    0.0707479014924918 H
   0.8129911097141650    0.8738442449573536    0.1769918539347161 H
   0.8814252798657003    0.8738442449573536    0.2047700023050917 H
   0.9269111400641304    0.8738442449573536    0.3738698778434991 H
   0.8814252796316155    0.8738442449573536    0.2929697532781777 H
   0.8129911095604565    0.8738442449573536    0.3207479014924918 H
   0.8129911097141650    0.8738442449573536    0.4269918539347162 H
   0.8814252798657003    0.8738442449573536    0.4547700023050917 H
   0.9269111400641306    0.8738442449573536    0.6238698778434990 H
   0.8814252796316155    0.8738442449573536    0.5429697532781776 H
   0.8129911095604564    0.8738442449573536    0.5707479014924919 H
   0.8129911097141650    0.8738442449573536    0.6769918539347162 H
   0.8814252798657003    0.8738442449573536    0.7047700023050917 H
   0.9269111400641307    0.8738442449573536    0.8738698778434992 H
   0.8814252796316155    0.8738442449573536    0.7929697532781778 H
   0.8129911095604565    0.8738442449573536    0.8207479014924919 H
   0.8129911097141650    0.8738442449573536    0.9269918539347163 H
   0.8814252798657003    0.8738442449573536    0.9547700023050919 H
   0.2359568417519758    0.0000000000000000    0.0000000002690452 Pb
   0.2359568417519758    0.0000000000000000    0.2500000002690452 Pb
   0.2359568417519758    0.0000000000000000    0.5000000002690452 Pb
   0.2359568417519758    0.0000000000000000    0.7500000002690453 Pb
   0.2359568417519758    0.2500000000000000    0.0000000002690452 Pb
   0.2359568417519758    0.2500000000000000    0.2500000002690452 Pb
   0.2359568417519758    0.2500000000000000    0.5000000002690452 Pb
   0.2359568417519758    0.2500000000000000    0.7500000002690453 Pb
   0.2359568417519758    0.5000000000000000    0.0000000002690452 Pb
   0.2359568417519758    0.5000000000000000    0.2500000002690452 Pb
   0.2359568417519758    0.5000000000000000    0.5000000002690452 Pb
   0.2359568417519758    0.5000000000000000    0.7500000002690453 Pb
   0.2359568417519758    0.7500000000000001    0.0000000002690452 Pb
   0.2359568417519758    0.7500000000000001    0.2500000002690452 Pb
   0.2359568417519758    0.7500000000000001    0.5000000002690452 Pb
   0.2359568417519758    0.7500000000000001    0.7500000002690453 Pb
   0.4859568417519758    0.0000000000000000    0.0000000002690452 Pb
   0.4859568417519758    0.0000000000000000    0.2500000002690452 Pb
   0.4859568417519758    0.0000000000000000    0.5000000002690451 Pb
   0.4859568417519758    0.0000000000000000    0.7500000002690452 Pb
   0.4859568417519758    0.2500000000000000    0.0000000002690452 Pb
   0.4859568417519758    0.2500000000000000    0.2500000002690452 Pb
   0.4859568417519758    0.2500000000000000    0.5000000002690451 Pb
   0.4859568417519758    0.2500000000000000    0.7500000002690452 Pb
   0.4859568417519758    0.5000000000000000    0.0000000002690452 Pb
   0.4859568417519758    0.5000000000000000    0.2500000002690452 Pb
   0.4859568417519758    0.5000000000000000    0.5000000002690451 Pb
   0.4859568417519758    0.5000000000000000    0.7500000002690452 Pb
   0.4859568417519758    0.7500000000000001    0.0000000002690452 Pb
   0.4859568417519758    0.7500000000000001    0.2500000002690452 Pb
   0.4859568417519758    0.7500000000000001    0.5000000002690451 Pb
   0.4859568417519758    0.7500000000000001    0.7500000002690452 Pb
   0.7359568417519760    0.0000000000000000    0.0000000002690452 Pb
   0.7359568417519757    0.0000000000000000    0.2500000002690452 Pb
   0.7359568417519758    0.0000000000000000    0.5000000002690452 Pb
   0.7359568417519757    0.0000000000000000    0.7500000002690452 Pb
   0.7359568417519760    0.2500000000000000    0.0000000002690452 Pb
   0.7359568417519757    0.2500000000000000    0.2500000002690452 Pb
   0.7359568417519758    0.2500000000000000    0.5000000002690452 Pb
   0.7359568417519757    0.2500000000000000    0.7500000002690452 Pb
   0.7359568417519760    0.5000000000000000    0.0000000002690452 Pb
   0.7359568417519757    0.5000000000000000    0.2500000002690452 Pb
   0.7359568417519758    0.5000000000000000    0.5000000002690452 Pb
   0.7359568417519757    0.5000000000000000    0.7500000002690452 Pb
   0.7359568417519760    0.7500000000000001    0.0000000002690452 Pb
   0.7359568417519757    0.7500000000000001    0.2500000002690452 Pb
   0.7359568417519758    0.7500000000000001    0.5000000002690452 Pb
   0.7359568417519757    0.7500000000000001    0.7500000002690452 Pb
   0.9859568417519757    0.0000000000000000    0.0000000002690452 Pb
   0.9859568417519760    0.0000000000000000    0.2500000002690452 Pb
   0.9859568417519758    0.0000000000000000    0.5000000002690452 Pb
   0.9859568417519760    0.0000000000000000    0.7500000002690453 Pb
   0.9859568417519757    0.2500000000000000    0.0000000002690452 Pb
   0.9859568417519760    0.2500000000000000    0.2500000002690452 Pb
   0.9859568417519758    0.2500000000000000    0.5000000002690452 Pb
   0.9859568417519760    0.2500000000000000    0.7500000002690453 Pb
   0.9859568417519757    0.5000000000000000    0.0000000002690452 Pb
   0.9859568417519760    0.5000000000000000    0.2500000002690452 Pb
   0.9859568417519758    0.5000000000000000    0.5000000002690452 Pb
   0.9859568417519760    0.5000000000000000    0.7500000002690453 Pb
   0.9859568417519757    0.7500000000000001    0.0000000002690452 Pb
   0.9859568417519760    0.7500000000000001    0.2500000002690452 Pb
   0.9859568417519758    0.7500000000000001    0.5000000002690452 Pb
   0.9859568417519760    0.7500000000000001    0.7500000002690453 Pb
   0.1307127976267426    0.1238442449573536    0.1238696268304497 C
   0.1307127976267426    0.1238442449573536    0.3738696268304497 C
   0.1307127976267426    0.1238442449573536    0.6238696268304497 C
   0.1307127976267426    0.1238442449573536    0.8738696268304498 C
   0.1307127976267426    0.3738442449573536    0.1238696268304497 C
   0.1307127976267426    0.3738442449573536    0.3738696268304497 C
   0.1307127976267426    0.3738442449573536    0.6238696268304497 C
   0.1307127976267426    0.3738442449573536    0.8738696268304498 C
   0.1307127976267426    0.6238442449573536    0.1238696268304497 C
   0.1307127976267426    0.6238442449573536    0.3738696268304497 C
   0.1307127976267426    0.6238442449573536    0.6238696268304497 C
   0.1307127976267426    0.6238442449573536    0.8738696268304498 C
   0.1307127976267426    0.8738442449573536    0.1238696268304497 C
   0.1307127976267426    0.8738442449573536    0.3738696268304497 C
   0.1307127976267426    0.8738442449573536    0.6238696268304497 C
   0.1307127976267426    0.8738442449573536    0.8738696268304498 C
   0.3807127976267426    0.1238442449573536    0.1238696268304497 C
   0.3807127976267426    0.1238442449573536    0.3738696268304497 C
   0.3807127976267426    0.1238442449573536    0.6238696268304497 C
   0.3807127976267426    0.1238442449573536    0.8738696268304498 C
   0.3807127976267426    0.3738442449573536    0.1238696268304497 C
   0.3807127976267426    0.3738442449573536    0.3738696268304497 C
   0.3807127976267426    0.3738442449573536    0.6238696268304497 C
   0.3807127976267426    0.3738442449573536    0.8738696268304498 C
   0.3807127976267426    0.6238442449573536    0.1238696268304497 C
   0.3807127976267426    0.6238442449573536    0.3738696268304497 C
   0.3807127976267426    0.6238442449573536    0.6238696268304497 C
   0.3807127976267426    0.6238442449573536    0.8738696268304498 C
   0.3807127976267426    0.8738442449573536    0.1238696268304497 C
   0.3807127976267426    0.8738442449573536    0.3738696268304497 C
   0.3807127976267426    0.8738442449573536    0.6238696268304497 C
   0.3807127976267426    0.8738442449573536    0.8738696268304498 C
   0.6307127976267426    0.1238442449573536    0.1238696268304497 C
   0.6307127976267427    0.1238442449573536    0.3738696268304497 C
   0.6307127976267427    0.1238442449573536    0.6238696268304498 C
   0.6307127976267426    0.1238442449573536    0.8738696268304497 C
   0.6307127976267426    0.3738442449573536    0.1238696268304497 C
   0.6307127976267427    0.3738442449573536    0.3738696268304497 C
   0.6307127976267427    0.3738442449573536    0.6238696268304498 C
   0.6307127976267426    0.3738442449573536    0.8738696268304497 C
   0.6307127976267426    0.6238442449573536    0.1238696268304497 C
   0.6307127976267427    0.6238442449573536    0.3738696268304497 C
   0.6307127976267427    0.6238442449573536    0.6238696268304498 C
   0.6307127976267426    0.6238442449573536    0.8738696268304497 C
   0.6307127976267426    0.8738442449573536    0.1238696268304497 C
   0.6307127976267427    0.8738442449573536    0.3738696268304497 C
   0.6307127976267427    0.8738442449573536    0.6238696268304498 C
   0.6307127976267426    0.8738442449573536    0.8738696268304497 C
   0.8807127976267427    0.1238442449573536    0.1238696268304497 C
   0.8807127976267427    0.1238442449573536    0.3738696268304497 C
   0.8807127976267426    0.1238442449573536    0.6238696268304497 C
   0.8807127976267427    0.1238442449573536    0.8738696268304498 C