 C  N  H Pb  I                          
   1.00000000000000     
     6.2495453393750608   -0.0000000000000000   -0.0000000007033013
     0.0000000000000000    6.3637430582333208    0.0000000000000000
    -0.0000008517165664    0.0000000000000000    6.4128723871176811
   C    N    H    Pb   I 
     1     2     5     1     3
Direct
  0.5245164485004150  0.5000000000000000  0.4999989869999979
  0.4294475251573628  0.5000000000000000  0.3183310260410367
  0.4294475251573628  0.5000000000000000  0.6816709409589666
  0.7000835896366964  0.5000000000000000  0.5000000000000000
  0.5246710795641945  0.5000000000000000  0.1884922767866692
  0.2668299024824561  0.5000000000000000  0.2979464832666887
  0.2668299024824561  0.5000000000000000  0.7020535167333103
  0.5246710795641945  0.5000000000000000  0.8115077232133314
  0.9558827085670967  0.0000000000000000  0.0000000000000000
  0.9715255364912192  0.0000000000000000  0.5000000000000000
  0.4536307663048531 -0.0000000000000000  0.0000000000000000
  0.9209788870916927  0.5000000000000000  0.0000000000000000
 
  0.00000000E+00  0.00000000E+00  0.00000000E+00
  0.00000000E+00  0.00000000E+00  0.00000000E+00
  0.00000000E+00  0.00000000E+00  0.00000000E+00
  0.00000000E+00  0.00000000E+00  0.00000000E+00
  0.00000000E+00  0.00000000E+00  0.00000000E+00
  0.00000000E+00  0.00000000E+00  0.00000000E+00
  0.00000000E+00  0.00000000E+00  0.00000000E+00
  0.00000000E+00  0.00000000E+00  0.00000000E+00
  0.00000000E+00  0.00000000E+00  0.00000000E+00
  0.00000000E+00  0.00000000E+00  0.00000000E+00
  0.00000000E+00  0.00000000E+00  0.00000000E+00
  0.00000000E+00  0.00000000E+00  0.00000000E+00
