H320 Pb64 C64 I96 Br96 N128
1.0
  24.2328986667043367    0.0000000000000000    0.0000000760837088
   0.0000000000000000   24.7800986732749493    0.0000000000000000
  -0.0000032208396694    0.0000000000000000   24.9858365952322927
H Pb C I Br N
320 64 64 96 96 128
direct
   0.1731865334801098    0.1215956876899658    0.1216698491644052 H
   0.1286583115052952    0.1215956876899658    0.0422065760443957 H
   0.0616649234970847    0.1215956876899658    0.0694913617654549 H
   0.0616649239404845    0.1215956876899658    0.1738483358139443 H
   0.1286583121805544    0.1215956876899658    0.2011331219851907 H
   0.1731865334801098    0.1215956876899658    0.3716698491644053 H
   0.1286583115052952    0.1215956876899658    0.2922065760443957 H
   0.0616649234970847    0.1215956876899658    0.3194913617654549 H
   0.0616649239404845    0.1215956876899658    0.4238483358139443 H
   0.1286583121805544    0.1215956876899658    0.4511331219851907 H
   0.1731865334801098    0.1215956876899658    0.6216698491644052 H
   0.1286583115052952    0.1215956876899658    0.5422065760443957 H
   0.0616649234970847    0.1215956876899658    0.5694913617654549 H
   0.0616649239404845    0.1215956876899658    0.6738483358139443 H
   0.1286583121805544    0.1215956876899658    0.7011331219851907 H
   0.1731865334801098    0.1215956876899658    0.8716698491644053 H
   0.1286583115052953    0.1215956876899658    0.7922065760443957 H
   0.0616649234970847    0.1215956876899658    0.8194913617654549 H
   0.0616649239404845    0.1215956876899658    0.9238483358139444 H
   0.1286583121805544    0.1215956876899658    0.9511331219851908 H
   0.1731865334801098    0.3715956876899658    0.1216698491644052 H
   0.1286583115052952    0.3715956876899658    0.0422065760443957 H
   0.0616649234970847    0.3715956876899658    0.0694913617654549 H
   0.0616649239404845    0.3715956876899658    0.1738483358139443 H
   0.1286583121805544    0.3715956876899658    0.2011331219851907 H
   0.1731865334801098    0.3715956876899658    0.3716698491644053 H
   0.1286583115052952    0.3715956876899658    0.2922065760443957 H
   0.0616649234970847    0.3715956876899658    0.3194913617654549 H
   0.0616649239404845    0.3715956876899658    0.4238483358139443 H
   0.1286583121805544    0.3715956876899658    0.4511331219851907 H
   0.1731865334801098    0.3715956876899658    0.6216698491644052 H
   0.1286583115052952    0.3715956876899658    0.5422065760443957 H
   0.0616649234970847    0.3715956876899658    0.5694913617654549 H
   0.0616649239404845    0.3715956876899658    0.6738483358139443 H
   0.1286583121805544    0.3715956876899658    0.7011331219851907 H
   0.1731865334801098    0.3715956876899658    0.8716698491644053 H
   0.1286583115052953    0.3715956876899658    0.7922065760443957 H
   0.0616649234970847    0.3715956876899658    0.8194913617654549 H
   0.0616649239404845    0.3715956876899658    0.9238483358139444 H
   0.1286583121805544    0.3715956876899658    0.9511331219851908 H
   0.1731865334801098    0.6215956876899658    0.1216698491644052 H
   0.1286583115052952    0.6215956876899658    0.0422065760443957 H
   0.0616649234970847    0.6215956876899658    0.0694913617654549 H
   0.0616649239404845    0.6215956876899658    0.1738483358139443 H
   0.1286583121805544    0.6215956876899658    0.2011331219851907 H
   0.1731865334801098    0.6215956876899658    0.3716698491644053 H
   0.1286583115052952    0.6215956876899658    0.2922065760443957 H
   0.0616649234970847    0.6215956876899658    0.3194913617654549 H
   0.0616649239404845    0.6215956876899658    0.4238483358139443 H
   0.1286583121805544    0.6215956876899658    0.4511331219851907 H
   0.1731865334801098    0.6215956876899658    0.6216698491644052 H
   0.1286583115052952    0.6215956876899658    0.5422065760443957 H
   0.0616649234970847    0.6215956876899658    0.5694913617654549 H
   0.0616649239404845    0.6215956876899658    0.6738483358139443 H
   0.1286583121805544    0.6215956876899658    0.7011331219851907 H
   0.1731865334801098    0.6215956876899658    0.8716698491644053 H
   0.1286583115052953    0.6215956876899658    0.7922065760443957 H
   0.0616649234970847    0.6215956876899658    0.8194913617654549 H
   0.0616649239404845    0.6215956876899658    0.9238483358139444 H
   0.1286583121805544    0.6215956876899658    0.9511331219851908 H
   0.1731865334801098    0.8715956876899658    0.1216698491644052 H
   0.1286583115052952    0.8715956876899658    0.0422065760443957 H
   0.0616649234970847    0.8715956876899658    0.0694913617654549 H
   0.0616649239404845    0.8715956876899658    0.1738483358139443 H
   0.1286583121805544    0.8715956876899658    0.2011331219851907 H
   0.1731865334801098    0.8715956876899658    0.3716698491644053 H
   0.1286583115052952    0.8715956876899658    0.2922065760443957 H
   0.0616649234970847    0.8715956876899658    0.3194913617654549 H
   0.0616649239404845    0.8715956876899658    0.4238483358139443 H
   0.1286583121805544    0.8715956876899658    0.4511331219851907 H
   0.1731865334801098    0.8715956876899658    0.6216698491644052 H
   0.1286583115052952    0.8715956876899658    0.5422065760443957 H
   0.0616649234970847    0.8715956876899658    0.5694913617654549 H
   0.0616649239404845    0.8715956876899658    0.6738483358139443 H
   0.1286583121805544    0.8715956876899658    0.7011331219851907 H
   0.1731865334801098    0.8715956876899658    0.8716698491644053 H
   0.1286583115052953    0.8715956876899658    0.7922065760443957 H
   0.0616649234970847    0.8715956876899658    0.8194913617654549 H
   0.0616649239404845    0.8715956876899658    0.9238483358139444 H
   0.1286583121805544    0.8715956876899658    0.9511331219851908 H
   0.4231865334801098    0.1215956876899658    0.1216698491644052 H
   0.3786583115052952    0.1215956876899658    0.0422065760443957 H
   0.3116649234970847    0.1215956876899658    0.0694913617654549 H
   0.3116649239404845    0.1215956876899658    0.1738483358139443 H
   0.3786583121805543    0.1215956876899658    0.2011331219851907 H
   0.4231865334801098    0.1215956876899658    0.3716698491644053 H
   0.3786583115052953    0.1215956876899658    0.2922065760443957 H
   0.3116649234970847    0.1215956876899658    0.3194913617654549 H
   0.3116649239404845    0.1215956876899658    0.4238483358139443 H
   0.3786583121805544    0.1215956876899658    0.4511331219851906 H
   0.4231865334801098    0.1215956876899658    0.6216698491644052 H
   0.3786583115052953    0.1215956876899658    0.5422065760443957 H
   0.3116649234970847    0.1215956876899658    0.5694913617654548 H
   0.3116649239404845    0.1215956876899658    0.6738483358139443 H
   0.3786583121805544    0.1215956876899658    0.7011331219851907 H
   0.4231865334801098    0.1215956876899658    0.8716698491644053 H
   0.3786583115052952    0.1215956876899658    0.7922065760443957 H
   0.3116649234970846    0.1215956876899658    0.8194913617654549 H
   0.3116649239404845    0.1215956876899658    0.9238483358139443 H
   0.3786583121805544    0.1215956876899658    0.9511331219851907 H
   0.4231865334801098    0.3715956876899658    0.1216698491644052 H
   0.3786583115052952    0.3715956876899658    0.0422065760443957 H
   0.3116649234970847    0.3715956876899658    0.0694913617654549 H
   0.3116649239404845    0.3715956876899658    0.1738483358139443 H
   0.3786583121805543    0.3715956876899658    0.2011331219851907 H
   0.4231865334801098    0.3715956876899658    0.3716698491644053 H
   0.3786583115052953    0.3715956876899658    0.2922065760443957 H
   0.3116649234970847    0.3715956876899658    0.3194913617654549 H
   0.3116649239404845    0.3715956876899658    0.4238483358139443 H
   0.3786583121805544    0.3715956876899658    0.4511331219851906 H
   0.4231865334801098    0.3715956876899658    0.6216698491644052 H
   0.3786583115052953    0.3715956876899658    0.5422065760443957 H
   0.3116649234970847    0.3715956876899658    0.5694913617654548 H
   0.3116649239404845    0.3715956876899658    0.6738483358139443 H
   0.3786583121805544    0.3715956876899658    0.7011331219851907 H
   0.4231865334801098    0.3715956876899658    0.8716698491644053 H
   0.3786583115052952    0.3715956876899658    0.7922065760443957 H
   0.3116649234970846    0.3715956876899658    0.8194913617654549 H
   0.3116649239404845    0.3715956876899658    0.9238483358139443 H
   0.3786583121805544    0.3715956876899658    0.9511331219851907 H
   0.4231865334801098    0.6215956876899658    0.1216698491644052 H
   0.3786583115052952    0.6215956876899658    0.0422065760443957 H
   0.3116649234970847    0.6215956876899658    0.0694913617654549 H
   0.3116649239404845    0.6215956876899658    0.1738483358139443 H
   0.3786583121805543    0.6215956876899658    0.2011331219851907 H
   0.4231865334801098    0.6215956876899658    0.3716698491644053 H
   0.3786583115052953    0.6215956876899658    0.2922065760443957 H
   0.3116649234970847    0.6215956876899658    0.3194913617654549 H
   0.3116649239404845    0.6215956876899658    0.4238483358139443 H
   0.3786583121805544    0.6215956876899658    0.4511331219851906 H
   0.4231865334801098    0.6215956876899658    0.6216698491644052 H
   0.3786583115052953    0.6215956876899658    0.5422065760443957 H
   0.3116649234970847    0.6215956876899658    0.5694913617654548 H
   0.3116649239404845    0.6215956876899658    0.6738483358139443 H
   0.3786583121805544    0.6215956876899658    0.7011331219851907 H
   0.4231865334801098    0.6215956876899658    0.8716698491644053 H
   0.3786583115052952    0.6215956876899658    0.7922065760443957 H
   0.3116649234970846    0.6215956876899658    0.8194913617654549 H
   0.3116649239404845    0.6215956876899658    0.9238483358139443 H
   0.3786583121805544    0.6215956876899658    0.9511331219851907 H
   0.4231865334801098    0.8715956876899658    0.1216698491644052 H
   0.3786583115052952    0.8715956876899658    0.0422065760443957 H
   0.3116649234970847    0.8715956876899658    0.0694913617654549 H
   0.3116649239404845    0.8715956876899658    0.1738483358139443 H
   0.3786583121805543    0.8715956876899658    0.2011331219851907 H
   0.4231865334801098    0.8715956876899658    0.3716698491644053 H
   0.3786583115052953    0.8715956876899658    0.2922065760443957 H
   0.3116649234970847    0.8715956876899658    0.3194913617654549 H
   0.3116649239404845    0.8715956876899658    0.4238483358139443 H
   0.3786583121805544    0.8715956876899658    0.4511331219851906 H
   0.4231865334801098    0.8715956876899658    0.6216698491644052 H
   0.3786583115052953    0.8715956876899658    0.5422065760443957 H
   0.3116649234970847    0.8715956876899658    0.5694913617654548 H
   0.3116649239404845    0.8715956876899658    0.6738483358139443 H
   0.3786583121805544    0.8715956876899658    0.7011331219851907 H
   0.4231865334801098    0.8715956876899658    0.8716698491644053 H
   0.3786583115052952    0.8715956876899658    0.7922065760443957 H
   0.3116649234970846    0.8715956876899658    0.8194913617654549 H
   0.3116649239404845    0.8715956876899658    0.9238483358139443 H
   0.3786583121805544    0.8715956876899658    0.9511331219851907 H
   0.6731865334801097    0.1215956876899658    0.1216698491644052 H
   0.6286583115052953    0.1215956876899658    0.0422065760443957 H
   0.5616649234970846    0.1215956876899658    0.0694913617654549 H
   0.5616649239404844    0.1215956876899658    0.1738483358139443 H
   0.6286583121805545    0.1215956876899658    0.2011331219851907 H
   0.6731865334801098    0.1215956876899658    0.3716698491644053 H
   0.6286583115052952    0.1215956876899658    0.2922065760443957 H
   0.5616649234970847    0.1215956876899658    0.3194913617654549 H
   0.5616649239404845    0.1215956876899658    0.4238483358139444 H
   0.6286583121805543    0.1215956876899658    0.4511331219851906 H
   0.6731865334801098    0.1215956876899658    0.6216698491644052 H
   0.6286583115052952    0.1215956876899658    0.5422065760443957 H
   0.5616649234970846    0.1215956876899658    0.5694913617654548 H
   0.5616649239404844    0.1215956876899658    0.6738483358139443 H
   0.6286583121805543    0.1215956876899658    0.7011331219851907 H
   0.6731865334801097    0.1215956876899658    0.8716698491644053 H
   0.6286583115052953    0.1215956876899658    0.7922065760443957 H
   0.5616649234970847    0.1215956876899658    0.8194913617654549 H
   0.5616649239404844    0.1215956876899658    0.9238483358139443 H
   0.6286583121805545    0.1215956876899658    0.9511331219851907 H
   0.6731865334801097    0.3715956876899658    0.1216698491644052 H
   0.6286583115052953    0.3715956876899658    0.0422065760443957 H
   0.5616649234970846    0.3715956876899658    0.0694913617654549 H
   0.5616649239404844    0.3715956876899658    0.1738483358139443 H
   0.6286583121805545    0.3715956876899658    0.2011331219851907 H
   0.6731865334801098    0.3715956876899658    0.3716698491644053 H
   0.6286583115052952    0.3715956876899658    0.2922065760443957 H
   0.5616649234970847    0.3715956876899658    0.3194913617654549 H
   0.5616649239404845    0.3715956876899658    0.4238483358139444 H
   0.6286583121805543    0.3715956876899658    0.4511331219851906 H
   0.6731865334801098    0.3715956876899658    0.6216698491644052 H
   0.6286583115052952    0.3715956876899658    0.5422065760443957 H
   0.5616649234970846    0.3715956876899658    0.5694913617654548 H
   0.5616649239404844    0.3715956876899658    0.6738483358139443 H
   0.6286583121805543    0.3715956876899658    0.7011331219851907 H
   0.6731865334801097    0.3715956876899658    0.8716698491644053 H
   0.6286583115052953    0.3715956876899658    0.7922065760443957 H
   0.5616649234970847    0.3715956876899658    0.8194913617654549 H
   0.5616649239404844    0.3715956876899658    0.9238483358139443 H
   0.6286583121805545    0.3715956876899658    0.9511331219851907 H
   0.6731865334801097    0.6215956876899658    0.1216698491644052 H
   0.6286583115052953    0.6215956876899658    0.0422065760443957 H
   0.5616649234970846    0.6215956876899658    0.0694913617654549 H
   0.5616649239404844    0.6215956876899658    0.1738483358139443 H
   0.6286583121805545    0.6215956876899658    0.2011331219851907 H
   0.6731865334801098    0.6215956876899658    0.3716698491644053 H
   0.6286583115052952    0.6215956876899658    0.2922065760443957 H
   0.5616649234970847    0.6215956876899658    0.3194913617654549 H
   0.5616649239404845    0.6215956876899658    0.4238483358139444 H
   0.6286583121805543    0.6215956876899658    0.4511331219851906 H
   0.6731865334801098    0.6215956876899658    0.6216698491644052 H
   0.6286583115052952    0.6215956876899658    0.5422065760443957 H
   0.5616649234970846    0.6215956876899658    0.5694913617654548 H
   0.5616649239404844    0.6215956876899658    0.6738483358139443 H
   0.6286583121805543    0.6215956876899658    0.7011331219851907 H
   0.6731865334801097    0.6215956876899658    0.8716698491644053 H
   0.6286583115052953    0.6215956876899658    0.7922065760443957 H
   0.5616649234970847    0.6215956876899658    0.8194913617654549 H
   0.5616649239404844    0.6215956876899658    0.9238483358139443 H
   0.6286583121805545    0.6215956876899658    0.9511331219851907 H
   0.6731865334801097    0.8715956876899658    0.1216698491644052 H
   0.6286583115052953    0.8715956876899658    0.0422065760443957 H
   0.5616649234970846    0.8715956876899658    0.0694913617654549 H
   0.5616649239404844    0.8715956876899658    0.1738483358139443 H
   0.6286583121805545    0.8715956876899658    0.2011331219851907 H
   0.6731865334801098    0.8715956876899658    0.3716698491644053 H
   0.6286583115052952    0.8715956876899658    0.2922065760443957 H
   0.5616649234970847    0.8715956876899658    0.3194913617654549 H
   0.5616649239404845    0.8715956876899658    0.4238483358139444 H
   0.6286583121805543    0.8715956876899658    0.4511331219851906 H
   0.6731865334801098    0.8715956876899658    0.6216698491644052 H
   0.6286583115052952    0.8715956876899658    0.5422065760443957 H
   0.5616649234970846    0.8715956876899658    0.5694913617654548 H
   0.5616649239404844    0.8715956876899658    0.6738483358139443 H
   0.6286583121805543    0.8715956876899658    0.7011331219851907 H
   0.6731865334801097    0.8715956876899658    0.8716698491644053 H
   0.6286583115052953    0.8715956876899658    0.7922065760443957 H
   0.5616649234970847    0.8715956876899658    0.8194913617654549 H
   0.5616649239404844    0.8715956876899658    0.9238483358139443 H
   0.6286583121805545    0.8715956876899658    0.9511331219851907 H
   0.9231865334801098    0.1215956876899658    0.1216698491644052 H
   0.8786583115052953    0.1215956876899658    0.0422065760443957 H
   0.8116649234970847    0.1215956876899658    0.0694913617654549 H
   0.8116649239404845    0.1215956876899658    0.1738483358139443 H
   0.8786583121805543    0.1215956876899658    0.2011331219851907 H
   0.9231865334801097    0.1215956876899658    0.3716698491644053 H
   0.8786583115052952    0.1215956876899658    0.2922065760443957 H
   0.8116649234970846    0.1215956876899658    0.3194913617654548 H
   0.8116649239404845    0.1215956876899658    0.4238483358139443 H
   0.8786583121805543    0.1215956876899658    0.4511331219851906 H
   0.9231865334801098    0.1215956876899658    0.6216698491644052 H
   0.8786583115052953    0.1215956876899658    0.5422065760443957 H
   0.8116649234970849    0.1215956876899658    0.5694913617654548 H
   0.8116649239404845    0.1215956876899658    0.6738483358139443 H
   0.8786583121805545    0.1215956876899658    0.7011331219851907 H
   0.9231865334801099    0.1215956876899658    0.8716698491644053 H
   0.8786583115052953    0.1215956876899658    0.7922065760443957 H
   0.8116649234970846    0.1215956876899658    0.8194913617654549 H
   0.8116649239404845    0.1215956876899658    0.9238483358139443 H
   0.8786583121805545    0.1215956876899658    0.9511331219851907 H
   0.9231865334801098    0.3715956876899658    0.1216698491644052 H
   0.8786583115052953    0.3715956876899658    0.0422065760443957 H
   0.8116649234970847    0.3715956876899658    0.0694913617654549 H
   0.8116649239404845    0.3715956876899658    0.1738483358139443 H
   0.8786583121805543    0.3715956876899658    0.2011331219851907 H
   0.9231865334801097    0.3715956876899658    0.3716698491644053 H
   0.8786583115052952    0.3715956876899658    0.2922065760443957 H
   0.8116649234970846    0.3715956876899658    0.3194913617654548 H
   0.8116649239404845    0.3715956876899658    0.4238483358139443 H
   0.8786583121805543    0.3715956876899658    0.4511331219851906 H
   0.9231865334801098    0.3715956876899658    0.6216698491644052 H
   0.8786583115052953    0.3715956876899658    0.5422065760443957 H
   0.8116649234970849    0.3715956876899658    0.5694913617654548 H
   0.8116649239404845    0.3715956876899658    0.6738483358139443 H
   0.8786583121805545    0.3715956876899658    0.7011331219851907 H
   0.9231865334801099    0.3715956876899658    0.8716698491644053 H
   0.8786583115052953    0.3715956876899658    0.7922065760443957 H
   0.8116649234970846    0.3715956876899658    0.8194913617654549 H
   0.8116649239404845    0.3715956876899658    0.9238483358139443 H
   0.8786583121805545    0.3715956876899658    0.9511331219851907 H
   0.9231865334801098    0.6215956876899658    0.1216698491644052 H
   0.8786583115052953    0.6215956876899658    0.0422065760443957 H
   0.8116649234970847    0.6215956876899658    0.0694913617654549 H
   0.8116649239404845    0.6215956876899658    0.1738483358139443 H
   0.8786583121805543    0.6215956876899658    0.2011331219851907 H
   0.9231865334801097    0.6215956876899658    0.3716698491644053 H
   0.8786583115052952    0.6215956876899658    0.2922065760443957 H
   0.8116649234970846    0.6215956876899658    0.3194913617654548 H
   0.8116649239404845    0.6215956876899658    0.4238483358139443 H
   0.8786583121805543    0.6215956876899658    0.4511331219851906 H
   0.9231865334801098    0.6215956876899658    0.6216698491644052 H
   0.8786583115052953    0.6215956876899658    0.5422065760443957 H
   0.8116649234970849    0.6215956876899658    0.5694913617654548 H
   0.8116649239404845    0.6215956876899658    0.6738483358139443 H
   0.8786583121805545    0.6215956876899658    0.7011331219851907 H
   0.9231865334801099    0.6215956876899658    0.8716698491644053 H
   0.8786583115052953    0.6215956876899658    0.7922065760443957 H
   0.8116649234970846    0.6215956876899658    0.8194913617654549 H
   0.8116649239404845    0.6215956876899658    0.9238483358139443 H
   0.8786583121805545    0.6215956876899658    0.9511331219851907 H
   0.9231865334801098    0.8715956876899658    0.1216698491644052 H
   0.8786583115052953    0.8715956876899658    0.0422065760443957 H
   0.8116649234970847    0.8715956876899658    0.0694913617654549 H
   0.8116649239404845    0.8715956876899658    0.1738483358139443 H
   0.8786583121805543    0.8715956876899658    0.2011331219851907 H
   0.9231865334801097    0.8715956876899658    0.3716698491644053 H
   0.8786583115052952    0.8715956876899658    0.2922065760443957 H
   0.8116649234970846    0.8715956876899658    0.3194913617654548 H
   0.8116649239404845    0.8715956876899658    0.4238483358139443 H
   0.8786583121805543    0.8715956876899658    0.4511331219851906 H
   0.9231865334801098    0.8715956876899658    0.6216698491644052 H
   0.8786583115052953    0.8715956876899658    0.5422065760443957 H
   0.8116649234970849    0.8715956876899658    0.5694913617654548 H
   0.8116649239404845    0.8715956876899658    0.6738483358139443 H
   0.8786583121805545    0.8715956876899658    0.7011331219851907 H
   0.9231865334801099    0.8715956876899658    0.8716698491644053 H
   0.8786583115052953    0.8715956876899658    0.7922065760443957 H
   0.8116649234970846    0.8715956876899658    0.8194913617654549 H
   0.8116649239404845    0.8715956876899658    0.9238483358139443 H
   0.8786583121805545    0.8715956876899658    0.9511331219851907 H
   0.2309891133963703    0.0000000000000000    0.0000000007761091 Pb
   0.2309891133963703    0.0000000000000000    0.2500000007761090 Pb
   0.2309891133963703    0.0000000000000000    0.5000000007761091 Pb
   0.2309891133963703    0.0000000000000000    0.7500000007761091 Pb
   0.2309891133963703    0.2500000000000000    0.0000000007761091 Pb
   0.2309891133963703    0.2500000000000000    0.2500000007761090 Pb
   0.2309891133963703    0.2500000000000000    0.5000000007761091 Pb
   0.2309891133963703    0.2500000000000000    0.7500000007761091 Pb
   0.2309891133963703    0.5000000000000000    0.0000000007761091 Pb
   0.2309891133963703    0.5000000000000000    0.2500000007761090 Pb
   0.2309891133963703    0.5000000000000000    0.5000000007761091 Pb
   0.2309891133963703    0.5000000000000000    0.7500000007761091 Pb
   0.2309891133963703    0.7500000000000000    0.0000000007761091 Pb
   0.2309891133963703    0.7500000000000000    0.2500000007761090 Pb
   0.2309891133963703    0.7500000000000000    0.5000000007761091 Pb
   0.2309891133963703    0.7500000000000000    0.7500000007761091 Pb
   0.4809891133963703    0.0000000000000000    0.0000000007761091 Pb
   0.4809891133963702    0.0000000000000000    0.2500000007761090 Pb
   0.4809891133963702    0.0000000000000000    0.5000000007761091 Pb
   0.4809891133963703    0.0000000000000000    0.7500000007761091 Pb
   0.4809891133963703    0.2500000000000000    0.0000000007761091 Pb
   0.4809891133963702    0.2500000000000000    0.2500000007761090 Pb
   0.4809891133963702    0.2500000000000000    0.5000000007761091 Pb
   0.4809891133963703    0.2500000000000000    0.7500000007761091 Pb
   0.4809891133963703    0.5000000000000000    0.0000000007761091 Pb
   0.4809891133963702    0.5000000000000000    0.2500000007761090 Pb
   0.4809891133963702    0.5000000000000000    0.5000000007761091 Pb
   0.4809891133963703    0.5000000000000000    0.7500000007761091 Pb
   0.4809891133963703    0.7500000000000000    0.0000000007761091 Pb
   0.4809891133963702    0.7500000000000000    0.2500000007761090 Pb
   0.4809891133963702    0.7500000000000000    0.5000000007761091 Pb
   0.4809891133963703    0.7500000000000000    0.7500000007761091 Pb
   0.7309891133963704    0.0000000000000000    0.0000000007761091 Pb
   0.7309891133963703    0.0000000000000000    0.2500000007761091 Pb
   0.7309891133963703    0.0000000000000000    0.5000000007761091 Pb
   0.7309891133963704    0.0000000000000000    0.7500000007761091 Pb
   0.7309891133963704    0.2500000000000000    0.0000000007761091 Pb
   0.7309891133963703    0.2500000000000000    0.2500000007761091 Pb
   0.7309891133963703    0.2500000000000000    0.5000000007761091 Pb
   0.7309891133963704    0.2500000000000000    0.7500000007761091 Pb
   0.7309891133963704    0.5000000000000000    0.0000000007761091 Pb
   0.7309891133963703    0.5000000000000000    0.2500000007761091 Pb
   0.7309891133963703    0.5000000000000000    0.5000000007761091 Pb
   0.7309891133963704    0.5000000000000000    0.7500000007761091 Pb
   0.7309891133963704    0.7500000000000000    0.0000000007761091 Pb
   0.7309891133963703    0.7500000000000000    0.2500000007761091 Pb
   0.7309891133963703    0.7500000000000000    0.5000000007761091 Pb
   0.7309891133963704    0.7500000000000000    0.7500000007761091 Pb
   0.9809891133963703    0.0000000000000000    0.0000000007761091 Pb
   0.9809891133963703    0.0000000000000000    0.2500000007761091 Pb
   0.9809891133963704    0.0000000000000000    0.5000000007761091 Pb
   0.9809891133963703    0.0000000000000000    0.7500000007761091 Pb
   0.9809891133963703    0.2500000000000000    0.0000000007761091 Pb
   0.9809891133963703    0.2500000000000000    0.2500000007761091 Pb
   0.9809891133963704    0.2500000000000000    0.5000000007761091 Pb
   0.9809891133963703    0.2500000000000000    0.7500000007761091 Pb
   0.9809891133963703    0.5000000000000000    0.0000000007761091 Pb
   0.9809891133963703    0.5000000000000000    0.2500000007761091 Pb
   0.9809891133963704    0.5000000000000000    0.5000000007761091 Pb
   0.9809891133963703    0.5000000000000000    0.7500000007761091 Pb
   0.9809891133963703    0.7500000000000000    0.0000000007761091 Pb
   0.9809891133963703    0.7500000000000000    0.2500000007761091 Pb
   0.9809891133963704    0.7500000000000000    0.5000000007761091 Pb
   0.9809891133963703    0.7500000000000000    0.7500000007761091 Pb
   0.1279608299965408    0.1215956876899658    0.1216696025093360 C
   0.1279608299965408    0.1215956876899658    0.3716696025093360 C
   0.1279608299965408    0.1215956876899658    0.6216696025093360 C
   0.1279608299965408    0.1215956876899658    0.8716696025093360 C
   0.1279608299965408    0.3715956876899658    0.1216696025093360 C
   0.1279608299965408    0.3715956876899658    0.3716696025093360 C
   0.1279608299965408    0.3715956876899658    0.6216696025093360 C
   0.1279608299965408    0.3715956876899658    0.8716696025093360 C
   0.1279608299965408    0.6215956876899658    0.1216696025093360 C
   0.1279608299965408    0.6215956876899658    0.3716696025093360 C
   0.1279608299965408    0.6215956876899658    0.6216696025093360 C
   0.1279608299965408    0.6215956876899658    0.8716696025093360 C
   0.1279608299965408    0.8715956876899658    0.1216696025093360 C
   0.1279608299965408    0.8715956876899658    0.3716696025093360 C
   0.1279608299965408    0.8715956876899658    0.6216696025093360 C
   0.1279608299965408    0.8715956876899658    0.8716696025093360 C
   0.3779608299965408    0.1215956876899658    0.1216696025093360 C
   0.3779608299965407    0.1215956876899658    0.3716696025093360 C
   0.3779608299965407    0.1215956876899658    0.6216696025093360 C
   0.3779608299965407    0.1215956876899658    0.8716696025093360 C
   0.3779608299965408    0.3715956876899658    0.1216696025093360 C
   0.3779608299965407    0.3715956876899658    0.3716696025093360 C
   0.3779608299965407    0.3715956876899658    0.6216696025093360 C
   0.3779608299965407    0.3715956876899658    0.8716696025093360 C
   0.3779608299965408    0.6215956876899658    0.1216696025093360 C
   0.3779608299965407    0.6215956876899658    0.3716696025093360 C
   0.3779608299965407    0.6215956876899658    0.6216696025093360 C
   0.3779608299965407    0.6215956876899658    0.8716696025093360 C
   0.3779608299965408    0.8715956876899658    0.1216696025093360 C
   0.3779608299965407    0.8715956876899658    0.3716696025093360 C
   0.3779608299965407    0.8715956876899658    0.6216696025093360 C
   0.3779608299965407    0.8715956876899658    0.8716696025093360 C
   0.6279608299965408    0.1215956876899658    0.1216696025093360 C
   0.6279608299965408    0.1215956876899658    0.3716696025093360 C
   0.6279608299965408    0.1215956876899658    0.6216696025093359 C
   0.6279608299965408    0.1215956876899658    0.8716696025093360 C
   0.6279608299965408    0.3715956876899658    0.1216696025093360 C
   0.6279608299965408    0.3715956876899658    0.3716696025093360 C
   0.6279608299965408    0.3715956876899658    0.6216696025093359 C
   0.6279608299965408    0.3715956876899658    0.8716696025093360 C
   0.6279608299965408    0.6215956876899658    0.1216696025093360 C
   0.6279608299965408    0.6215956876899658    0.3716696025093360 C
   0.6279608299965408    0.6215956876899658    0.6216696025093359 C
   0.6279608299965408    0.6215956876899658    0.8716696025093360 C
   0.6279608299965408    0.8715956876899658    0.1216696025093360 C
   0.6279608299965408    0.8715956876899658    0.3716696025093360 C
   0.6279608299965408    0.8715956876899658    0.6216696025093359 C
   0.6279608299965408    0.8715956876899658    0.8716696025093360 C
   0.8779608299965408    0.1215956876899658    0.1216696025093360 C
   0.8779608299965408    0.1215956876899658    0.3716696025093360 C
   0.8779608299965408    0.1215956876899658    0.6216696025093359 C
   0.8779608299965408    0.1215956876899658    0.8716696025093360 C