H320 Pb64 C64 I16 Br176 N128
1.0
  23.5951630910410834    0.0000000000000000    0.0000001418311371
   0.0000000000000000   24.2177040402263337    0.0000000000000000
  -0.0000030658175059    0.0000000000000000   24.4311258008669299
H Pb C I Br N
320 64 64 16 176 128
direct
   0.1778674590921844    0.1244194385312967    0.1244323729703052 H
   0.1321357182276025    0.1244194385312967    0.0431648795856939 H
   0.0633316171917828    0.1244194385312967    0.0710691688837163 H
   0.0633316172694034    0.1244194385312967    0.1777955769257038 H
   0.1321357183458119    0.1244194385312967    0.2056998663025350 H
   0.1778674590921845    0.1244194385312967    0.3744323729703052 H
   0.1321357182276025    0.1244194385312967    0.2931648795856939 H
   0.0633316171917828    0.1244194385312967    0.3210691688837163 H
   0.0633316172694034    0.1244194385312967    0.4277955769257039 H
   0.1321357183458119    0.1244194385312967    0.4556998663025350 H
   0.1778674590921844    0.1244194385312967    0.6244323729703051 H
   0.1321357182276025    0.1244194385312967    0.5431648795856938 H
   0.0633316171917828    0.1244194385312967    0.5710691688837162 H
   0.0633316172694034    0.1244194385312967    0.6777955769257038 H
   0.1321357183458119    0.1244194385312967    0.7056998663025350 H
   0.1778674590921845    0.1244194385312967    0.8744323729703051 H
   0.1321357182276025    0.1244194385312967    0.7931648795856938 H
   0.0633316171917828    0.1244194385312967    0.8210691688837162 H
   0.0633316172694034    0.1244194385312967    0.9277955769257037 H
   0.1321357183458119    0.1244194385312967    0.9556998663025350 H
   0.1778674590921844    0.3744194385312967    0.1244323729703052 H
   0.1321357182276025    0.3744194385312967    0.0431648795856939 H
   0.0633316171917828    0.3744194385312967    0.0710691688837163 H
   0.0633316172694034    0.3744194385312967    0.1777955769257038 H
   0.1321357183458119    0.3744194385312967    0.2056998663025350 H
   0.1778674590921845    0.3744194385312967    0.3744323729703052 H
   0.1321357182276025    0.3744194385312967    0.2931648795856939 H
   0.0633316171917828    0.3744194385312967    0.3210691688837163 H
   0.0633316172694034    0.3744194385312967    0.4277955769257039 H
   0.1321357183458119    0.3744194385312967    0.4556998663025350 H
   0.1778674590921844    0.3744194385312967    0.6244323729703051 H
   0.1321357182276025    0.3744194385312967    0.5431648795856938 H
   0.0633316171917828    0.3744194385312967    0.5710691688837162 H
   0.0633316172694034    0.3744194385312967    0.6777955769257038 H
   0.1321357183458119    0.3744194385312967    0.7056998663025350 H
   0.1778674590921845    0.3744194385312967    0.8744323729703051 H
   0.1321357182276025    0.3744194385312967    0.7931648795856938 H
   0.0633316171917828    0.3744194385312967    0.8210691688837162 H
   0.0633316172694034    0.3744194385312967    0.9277955769257037 H
   0.1321357183458119    0.3744194385312967    0.9556998663025350 H
   0.1778674590921844    0.6244194385312967    0.1244323729703052 H
   0.1321357182276025    0.6244194385312967    0.0431648795856939 H
   0.0633316171917828    0.6244194385312967    0.0710691688837163 H
   0.0633316172694034    0.6244194385312967    0.1777955769257038 H
   0.1321357183458119    0.6244194385312967    0.2056998663025350 H
   0.1778674590921845    0.6244194385312967    0.3744323729703052 H
   0.1321357182276025    0.6244194385312967    0.2931648795856939 H
   0.0633316171917828    0.6244194385312967    0.3210691688837163 H
   0.0633316172694034    0.6244194385312967    0.4277955769257039 H
   0.1321357183458119    0.6244194385312967    0.4556998663025350 H
   0.1778674590921844    0.6244194385312967    0.6244323729703051 H
   0.1321357182276025    0.6244194385312967    0.5431648795856938 H
   0.0633316171917828    0.6244194385312967    0.5710691688837162 H
   0.0633316172694034    0.6244194385312967    0.6777955769257038 H
   0.1321357183458119    0.6244194385312967    0.7056998663025350 H
   0.1778674590921845    0.6244194385312967    0.8744323729703051 H
   0.1321357182276025    0.6244194385312967    0.7931648795856938 H
   0.0633316171917828    0.6244194385312967    0.8210691688837162 H
   0.0633316172694034    0.6244194385312967    0.9277955769257037 H
   0.1321357183458119    0.6244194385312967    0.9556998663025350 H
   0.1778674590921844    0.8744194385312966    0.1244323729703052 H
   0.1321357182276025    0.8744194385312966    0.0431648795856939 H
   0.0633316171917828    0.8744194385312966    0.0710691688837163 H
   0.0633316172694034    0.8744194385312966    0.1777955769257038 H
   0.1321357183458119    0.8744194385312966    0.2056998663025350 H
   0.1778674590921845    0.8744194385312966    0.3744323729703052 H
   0.1321357182276025    0.8744194385312966    0.2931648795856939 H
   0.0633316171917828    0.8744194385312966    0.3210691688837163 H
   0.0633316172694034    0.8744194385312966    0.4277955769257039 H
   0.1321357183458119    0.8744194385312966    0.4556998663025350 H
   0.1778674590921844    0.8744194385312966    0.6244323729703051 H
   0.1321357182276025    0.8744194385312966    0.5431648795856938 H
   0.0633316171917828    0.8744194385312966    0.5710691688837162 H
   0.0633316172694034    0.8744194385312966    0.6777955769257038 H
   0.1321357183458119    0.8744194385312966    0.7056998663025350 H
   0.1778674590921845    0.8744194385312966    0.8744323729703051 H
   0.1321357182276025    0.8744194385312966    0.7931648795856938 H
   0.0633316171917828    0.8744194385312966    0.8210691688837162 H
   0.0633316172694034    0.8744194385312966    0.9277955769257037 H
   0.1321357183458119    0.8744194385312966    0.9556998663025350 H
   0.4278674590921844    0.1244194385312967    0.1244323729703052 H
   0.3821357182276025    0.1244194385312967    0.0431648795856939 H
   0.3133316171917828    0.1244194385312967    0.0710691688837163 H
   0.3133316172694035    0.1244194385312967    0.1777955769257038 H
   0.3821357183458119    0.1244194385312967    0.2056998663025350 H
   0.4278674590921845    0.1244194385312967    0.3744323729703052 H
   0.3821357182276025    0.1244194385312967    0.2931648795856939 H
   0.3133316171917828    0.1244194385312967    0.3210691688837163 H
   0.3133316172694035    0.1244194385312967    0.4277955769257039 H
   0.3821357183458119    0.1244194385312967    0.4556998663025350 H
   0.4278674590921845    0.1244194385312967    0.6244323729703051 H
   0.3821357182276024    0.1244194385312967    0.5431648795856938 H
   0.3133316171917828    0.1244194385312967    0.5710691688837163 H
   0.3133316172694034    0.1244194385312967    0.6777955769257038 H
   0.3821357183458119    0.1244194385312967    0.7056998663025350 H
   0.4278674590921844    0.1244194385312967    0.8744323729703051 H
   0.3821357182276025    0.1244194385312967    0.7931648795856938 H
   0.3133316171917828    0.1244194385312967    0.8210691688837162 H
   0.3133316172694034    0.1244194385312967    0.9277955769257037 H
   0.3821357183458118    0.1244194385312967    0.9556998663025350 H
   0.4278674590921844    0.3744194385312967    0.1244323729703052 H
   0.3821357182276025    0.3744194385312967    0.0431648795856939 H
   0.3133316171917828    0.3744194385312967    0.0710691688837163 H
   0.3133316172694035    0.3744194385312967    0.1777955769257038 H
   0.3821357183458119    0.3744194385312967    0.2056998663025350 H
   0.4278674590921845    0.3744194385312967    0.3744323729703052 H
   0.3821357182276025    0.3744194385312967    0.2931648795856939 H
   0.3133316171917828    0.3744194385312967    0.3210691688837163 H
   0.3133316172694035    0.3744194385312967    0.4277955769257039 H
   0.3821357183458119    0.3744194385312967    0.4556998663025350 H
   0.4278674590921845    0.3744194385312967    0.6244323729703051 H
   0.3821357182276024    0.3744194385312967    0.5431648795856938 H
   0.3133316171917828    0.3744194385312967    0.5710691688837163 H
   0.3133316172694034    0.3744194385312967    0.6777955769257038 H
   0.3821357183458119    0.3744194385312967    0.7056998663025350 H
   0.4278674590921844    0.3744194385312967    0.8744323729703051 H
   0.3821357182276025    0.3744194385312967    0.7931648795856938 H
   0.3133316171917828    0.3744194385312967    0.8210691688837162 H
   0.3133316172694034    0.3744194385312967    0.9277955769257037 H
   0.3821357183458118    0.3744194385312967    0.9556998663025350 H
   0.4278674590921844    0.6244194385312967    0.1244323729703052 H
   0.3821357182276025    0.6244194385312967    0.0431648795856939 H
   0.3133316171917828    0.6244194385312967    0.0710691688837163 H
   0.3133316172694035    0.6244194385312967    0.1777955769257038 H
   0.3821357183458119    0.6244194385312967    0.2056998663025350 H
   0.4278674590921845    0.6244194385312967    0.3744323729703052 H
   0.3821357182276025    0.6244194385312967    0.2931648795856939 H
   0.3133316171917828    0.6244194385312967    0.3210691688837163 H
   0.3133316172694035    0.6244194385312967    0.4277955769257039 H
   0.3821357183458119    0.6244194385312967    0.4556998663025350 H
   0.4278674590921845    0.6244194385312967    0.6244323729703051 H
   0.3821357182276024    0.6244194385312967    0.5431648795856938 H
   0.3133316171917828    0.6244194385312967    0.5710691688837163 H
   0.3133316172694034    0.6244194385312967    0.6777955769257038 H
   0.3821357183458119    0.6244194385312967    0.7056998663025350 H
   0.4278674590921844    0.6244194385312967    0.8744323729703051 H
   0.3821357182276025    0.6244194385312967    0.7931648795856938 H
   0.3133316171917828    0.6244194385312967    0.8210691688837162 H
   0.3133316172694034    0.6244194385312967    0.9277955769257037 H
   0.3821357183458118    0.6244194385312967    0.9556998663025350 H
   0.4278674590921844    0.8744194385312966    0.1244323729703052 H
   0.3821357182276025    0.8744194385312966    0.0431648795856939 H
   0.3133316171917828    0.8744194385312966    0.0710691688837163 H
   0.3133316172694035    0.8744194385312966    0.1777955769257038 H
   0.3821357183458119    0.8744194385312966    0.2056998663025350 H
   0.4278674590921845    0.8744194385312966    0.3744323729703052 H
   0.3821357182276025    0.8744194385312966    0.2931648795856939 H
   0.3133316171917828    0.8744194385312966    0.3210691688837163 H
   0.3133316172694035    0.8744194385312966    0.4277955769257039 H
   0.3821357183458119    0.8744194385312966    0.4556998663025350 H
   0.4278674590921845    0.8744194385312966    0.6244323729703051 H
   0.3821357182276024    0.8744194385312966    0.5431648795856938 H
   0.3133316171917828    0.8744194385312966    0.5710691688837163 H
   0.3133316172694034    0.8744194385312966    0.6777955769257038 H
   0.3821357183458119    0.8744194385312966    0.7056998663025350 H
   0.4278674590921844    0.8744194385312966    0.8744323729703051 H
   0.3821357182276025    0.8744194385312966    0.7931648795856938 H
   0.3133316171917828    0.8744194385312966    0.8210691688837162 H
   0.3133316172694034    0.8744194385312966    0.9277955769257037 H
   0.3821357183458118    0.8744194385312966    0.9556998663025350 H
   0.6778674590921845    0.1244194385312967    0.1244323729703052 H
   0.6321357182276024    0.1244194385312967    0.0431648795856939 H
   0.5633316171917828    0.1244194385312967    0.0710691688837163 H
   0.5633316172694034    0.1244194385312967    0.1777955769257038 H
   0.6321357183458118    0.1244194385312967    0.2056998663025350 H
   0.6778674590921844    0.1244194385312967    0.3744323729703052 H
   0.6321357182276024    0.1244194385312967    0.2931648795856939 H
   0.5633316171917828    0.1244194385312967    0.3210691688837163 H
   0.5633316172694034    0.1244194385312967    0.4277955769257039 H
   0.6321357183458118    0.1244194385312967    0.4556998663025350 H
   0.6778674590921845    0.1244194385312967    0.6244323729703051 H
   0.6321357182276024    0.1244194385312967    0.5431648795856938 H
   0.5633316171917828    0.1244194385312967    0.5710691688837163 H
   0.5633316172694034    0.1244194385312967    0.6777955769257037 H
   0.6321357183458118    0.1244194385312967    0.7056998663025350 H
   0.6778674590921844    0.1244194385312967    0.8744323729703051 H
   0.6321357182276025    0.1244194385312967    0.7931648795856938 H
   0.5633316171917828    0.1244194385312967    0.8210691688837162 H
   0.5633316172694034    0.1244194385312967    0.9277955769257037 H
   0.6321357183458118    0.1244194385312967    0.9556998663025350 H
   0.6778674590921845    0.3744194385312967    0.1244323729703052 H
   0.6321357182276024    0.3744194385312967    0.0431648795856939 H
   0.5633316171917828    0.3744194385312967    0.0710691688837163 H
   0.5633316172694034    0.3744194385312967    0.1777955769257038 H
   0.6321357183458118    0.3744194385312967    0.2056998663025350 H
   0.6778674590921844    0.3744194385312967    0.3744323729703052 H
   0.6321357182276024    0.3744194385312967    0.2931648795856939 H
   0.5633316171917828    0.3744194385312967    0.3210691688837163 H
   0.5633316172694034    0.3744194385312967    0.4277955769257039 H
   0.6321357183458118    0.3744194385312967    0.4556998663025350 H
   0.6778674590921845    0.3744194385312967    0.6244323729703051 H
   0.6321357182276024    0.3744194385312967    0.5431648795856938 H
   0.5633316171917828    0.3744194385312967    0.5710691688837163 H
   0.5633316172694034    0.3744194385312967    0.6777955769257037 H
   0.6321357183458118    0.3744194385312967    0.7056998663025350 H
   0.6778674590921844    0.3744194385312967    0.8744323729703051 H
   0.6321357182276025    0.3744194385312967    0.7931648795856938 H
   0.5633316171917828    0.3744194385312967    0.8210691688837162 H
   0.5633316172694034    0.3744194385312967    0.9277955769257037 H
   0.6321357183458118    0.3744194385312967    0.9556998663025350 H
   0.6778674590921845    0.6244194385312967    0.1244323729703052 H
   0.6321357182276024    0.6244194385312967    0.0431648795856939 H
   0.5633316171917828    0.6244194385312967    0.0710691688837163 H
   0.5633316172694034    0.6244194385312967    0.1777955769257038 H
   0.6321357183458118    0.6244194385312967    0.2056998663025350 H
   0.6778674590921844    0.6244194385312967    0.3744323729703052 H
   0.6321357182276024    0.6244194385312967    0.2931648795856939 H
   0.5633316171917828    0.6244194385312967    0.3210691688837163 H
   0.5633316172694034    0.6244194385312967    0.4277955769257039 H
   0.6321357183458118    0.6244194385312967    0.4556998663025350 H
   0.6778674590921845    0.6244194385312967    0.6244323729703051 H
   0.6321357182276024    0.6244194385312967    0.5431648795856938 H
   0.5633316171917828    0.6244194385312967    0.5710691688837163 H
   0.5633316172694034    0.6244194385312967    0.6777955769257037 H
   0.6321357183458118    0.6244194385312967    0.7056998663025350 H
   0.6778674590921844    0.6244194385312967    0.8744323729703051 H
   0.6321357182276025    0.6244194385312967    0.7931648795856938 H
   0.5633316171917828    0.6244194385312967    0.8210691688837162 H
   0.5633316172694034    0.6244194385312967    0.9277955769257037 H
   0.6321357183458118    0.6244194385312967    0.9556998663025350 H
   0.6778674590921845    0.8744194385312966    0.1244323729703052 H
   0.6321357182276024    0.8744194385312966    0.0431648795856939 H
   0.5633316171917828    0.8744194385312966    0.0710691688837163 H
   0.5633316172694034    0.8744194385312966    0.1777955769257038 H
   0.6321357183458118    0.8744194385312966    0.2056998663025350 H
   0.6778674590921844    0.8744194385312966    0.3744323729703052 H
   0.6321357182276024    0.8744194385312966    0.2931648795856939 H
   0.5633316171917828    0.8744194385312966    0.3210691688837163 H
   0.5633316172694034    0.8744194385312966    0.4277955769257039 H
   0.6321357183458118    0.8744194385312966    0.4556998663025350 H
   0.6778674590921845    0.8744194385312966    0.6244323729703051 H
   0.6321357182276024    0.8744194385312966    0.5431648795856938 H
   0.5633316171917828    0.8744194385312966    0.5710691688837163 H
   0.5633316172694034    0.8744194385312966    0.6777955769257037 H
   0.6321357183458118    0.8744194385312966    0.7056998663025350 H
   0.6778674590921844    0.8744194385312966    0.8744323729703051 H
   0.6321357182276025    0.8744194385312966    0.7931648795856938 H
   0.5633316171917828    0.8744194385312966    0.8210691688837162 H
   0.5633316172694034    0.8744194385312966    0.9277955769257037 H
   0.6321357183458118    0.8744194385312966    0.9556998663025350 H
   0.9278674590921844    0.1244194385312967    0.1244323729703052 H
   0.8821357182276024    0.1244194385312967    0.0431648795856939 H
   0.8133316171917827    0.1244194385312967    0.0710691688837162 H
   0.8133316172694033    0.1244194385312967    0.1777955769257038 H
   0.8821357183458119    0.1244194385312967    0.2056998663025350 H
   0.9278674590921844    0.1244194385312967    0.3744323729703052 H
   0.8821357182276024    0.1244194385312967    0.2931648795856938 H
   0.8133316171917827    0.1244194385312967    0.3210691688837163 H
   0.8133316172694033    0.1244194385312967    0.4277955769257039 H
   0.8821357183458118    0.1244194385312967    0.4556998663025350 H
   0.9278674590921843    0.1244194385312967    0.6244323729703051 H
   0.8821357182276024    0.1244194385312967    0.5431648795856938 H
   0.8133316171917827    0.1244194385312967    0.5710691688837163 H
   0.8133316172694033    0.1244194385312967    0.6777955769257037 H
   0.8821357183458118    0.1244194385312967    0.7056998663025351 H
   0.9278674590921845    0.1244194385312967    0.8744323729703051 H
   0.8821357182276025    0.1244194385312967    0.7931648795856938 H
   0.8133316171917828    0.1244194385312967    0.8210691688837162 H
   0.8133316172694034    0.1244194385312967    0.9277955769257037 H
   0.8821357183458119    0.1244194385312967    0.9556998663025349 H
   0.9278674590921844    0.3744194385312967    0.1244323729703052 H
   0.8821357182276024    0.3744194385312967    0.0431648795856939 H
   0.8133316171917827    0.3744194385312967    0.0710691688837162 H
   0.8133316172694033    0.3744194385312967    0.1777955769257038 H
   0.8821357183458119    0.3744194385312967    0.2056998663025350 H
   0.9278674590921844    0.3744194385312967    0.3744323729703052 H
   0.8821357182276024    0.3744194385312967    0.2931648795856938 H
   0.8133316171917827    0.3744194385312967    0.3210691688837163 H
   0.8133316172694033    0.3744194385312967    0.4277955769257039 H
   0.8821357183458118    0.3744194385312967    0.4556998663025350 H
   0.9278674590921843    0.3744194385312967    0.6244323729703051 H
   0.8821357182276024    0.3744194385312967    0.5431648795856938 H
   0.8133316171917827    0.3744194385312967    0.5710691688837163 H
   0.8133316172694033    0.3744194385312967    0.6777955769257037 H
   0.8821357183458118    0.3744194385312967    0.7056998663025351 H
   0.9278674590921845    0.3744194385312967    0.8744323729703051 H
   0.8821357182276025    0.3744194385312967    0.7931648795856938 H
   0.8133316171917828    0.3744194385312967    0.8210691688837162 H
   0.8133316172694034    0.3744194385312967    0.9277955769257037 H
   0.8821357183458119    0.3744194385312967    0.9556998663025349 H
   0.9278674590921844    0.6244194385312967    0.1244323729703052 H
   0.8821357182276024    0.6244194385312967    0.0431648795856939 H
   0.8133316171917827    0.6244194385312967    0.0710691688837162 H
   0.8133316172694033    0.6244194385312967    0.1777955769257038 H
   0.8821357183458119    0.6244194385312967    0.2056998663025350 H
   0.9278674590921844    0.6244194385312967    0.3744323729703052 H
   0.8821357182276024    0.6244194385312967    0.2931648795856938 H
   0.8133316171917827    0.6244194385312967    0.3210691688837163 H
   0.8133316172694033    0.6244194385312967    0.4277955769257039 H
   0.8821357183458118    0.6244194385312967    0.4556998663025350 H
   0.9278674590921843    0.6244194385312967    0.6244323729703051 H
   0.8821357182276024    0.6244194385312967    0.5431648795856938 H
   0.8133316171917827    0.6244194385312967    0.5710691688837163 H
   0.8133316172694033    0.6244194385312967    0.6777955769257037 H
   0.8821357183458118    0.6244194385312967    0.7056998663025351 H
   0.9278674590921845    0.6244194385312967    0.8744323729703051 H
   0.8821357182276025    0.6244194385312967    0.7931648795856938 H
   0.8133316171917828    0.6244194385312967    0.8210691688837162 H
   0.8133316172694034    0.6244194385312967    0.9277955769257037 H
   0.8821357183458119    0.6244194385312967    0.9556998663025349 H
   0.9278674590921844    0.8744194385312966    0.1244323729703052 H
   0.8821357182276024    0.8744194385312966    0.0431648795856939 H
   0.8133316171917827    0.8744194385312966    0.0710691688837162 H
   0.8133316172694033    0.8744194385312966    0.1777955769257038 H
   0.8821357183458119    0.8744194385312966    0.2056998663025350 H
   0.9278674590921844    0.8744194385312966    0.3744323729703052 H
   0.8821357182276024    0.8744194385312966    0.2931648795856938 H
   0.8133316171917827    0.8744194385312966    0.3210691688837163 H
   0.8133316172694033    0.8744194385312966    0.4277955769257039 H
   0.8821357183458118    0.8744194385312966    0.4556998663025350 H
   0.9278674590921843    0.8744194385312966    0.6244323729703051 H
   0.8821357182276024    0.8744194385312966    0.5431648795856938 H
   0.8133316171917827    0.8744194385312966    0.5710691688837163 H
   0.8133316172694033    0.8744194385312966    0.6777955769257037 H
   0.8821357183458118    0.8744194385312966    0.7056998663025351 H
   0.9278674590921845    0.8744194385312966    0.8744323729703051 H
   0.8821357182276025    0.8744194385312966    0.7931648795856938 H
   0.8133316171917828    0.8744194385312966    0.8210691688837162 H
   0.8133316172694034    0.8744194385312966    0.9277955769257037 H
   0.8821357183458119    0.8744194385312966    0.9556998663025349 H
   0.2372323410712708    0.0000000000000000    0.0000000001358640 Pb
   0.2372323410712708    0.0000000000000000    0.2500000001358640 Pb
   0.2372323410712708    0.0000000000000000    0.5000000001358639 Pb
   0.2372323410712708    0.0000000000000000    0.7500000001358639 Pb
   0.2372323410712708    0.2500000000000000    0.0000000001358640 Pb
   0.2372323410712708    0.2500000000000000    0.2500000001358640 Pb
   0.2372323410712708    0.2500000000000000    0.5000000001358639 Pb
   0.2372323410712708    0.2500000000000000    0.7500000001358639 Pb
   0.2372323410712708    0.4999999999999999    0.0000000001358640 Pb
   0.2372323410712708    0.4999999999999999    0.2500000001358640 Pb
   0.2372323410712708    0.4999999999999999    0.5000000001358639 Pb
   0.2372323410712708    0.4999999999999999    0.7500000001358639 Pb
   0.2372323410712708    0.7499999999999999    0.0000000001358640 Pb
   0.2372323410712708    0.7499999999999999    0.2500000001358640 Pb
   0.2372323410712708    0.7499999999999999    0.5000000001358639 Pb
   0.2372323410712708    0.7499999999999999    0.7500000001358639 Pb
   0.4872323410712707    0.0000000000000000    0.0000000001358640 Pb
   0.4872323410712708    0.0000000000000000    0.2500000001358640 Pb
   0.4872323410712708    0.0000000000000000    0.5000000001358639 Pb
   0.4872323410712708    0.0000000000000000    0.7500000001358639 Pb
   0.4872323410712707    0.2500000000000000    0.0000000001358640 Pb
   0.4872323410712708    0.2500000000000000    0.2500000001358640 Pb
   0.4872323410712708    0.2500000000000000    0.5000000001358639 Pb
   0.4872323410712708    0.2500000000000000    0.7500000001358639 Pb
   0.4872323410712707    0.4999999999999999    0.0000000001358640 Pb
   0.4872323410712708    0.4999999999999999    0.2500000001358640 Pb
   0.4872323410712708    0.4999999999999999    0.5000000001358639 Pb
   0.4872323410712708    0.4999999999999999    0.7500000001358639 Pb
   0.4872323410712707    0.7499999999999999    0.0000000001358640 Pb
   0.4872323410712708    0.7499999999999999    0.2500000001358640 Pb
   0.4872323410712708    0.7499999999999999    0.5000000001358639 Pb
   0.4872323410712708    0.7499999999999999    0.7500000001358639 Pb
   0.7372323410712708    0.0000000000000000    0.0000000001358640 Pb
   0.7372323410712707    0.0000000000000000    0.2500000001358639 Pb
   0.7372323410712707    0.0000000000000000    0.5000000001358639 Pb
   0.7372323410712706    0.0000000000000000    0.7500000001358639 Pb
   0.7372323410712708    0.2500000000000000    0.0000000001358640 Pb
   0.7372323410712707    0.2500000000000000    0.2500000001358639 Pb
   0.7372323410712707    0.2500000000000000    0.5000000001358639 Pb
   0.7372323410712706    0.2500000000000000    0.7500000001358639 Pb
   0.7372323410712708    0.4999999999999999    0.0000000001358640 Pb
   0.7372323410712707    0.4999999999999999    0.2500000001358639 Pb
   0.7372323410712707    0.4999999999999999    0.5000000001358639 Pb
   0.7372323410712706    0.4999999999999999    0.7500000001358639 Pb
   0.7372323410712708    0.7499999999999999    0.0000000001358640 Pb
   0.7372323410712707    0.7499999999999999    0.2500000001358639 Pb
   0.7372323410712707    0.7499999999999999    0.5000000001358639 Pb
   0.7372323410712706    0.7499999999999999    0.7500000001358639 Pb
   0.9872323410712708    0.0000000000000000    0.0000000001358640 Pb
   0.9872323410712708    0.0000000000000000    0.2500000001358639 Pb
   0.9872323410712707    0.0000000000000000    0.5000000001358639 Pb
   0.9872323410712707    0.0000000000000000    0.7500000001358639 Pb
   0.9872323410712708    0.2500000000000000    0.0000000001358640 Pb
   0.9872323410712708    0.2500000000000000    0.2500000001358639 Pb
   0.9872323410712707    0.2500000000000000    0.5000000001358639 Pb
   0.9872323410712707    0.2500000000000000    0.7500000001358639 Pb
   0.9872323410712708    0.4999999999999999    0.0000000001358640 Pb
   0.9872323410712708    0.4999999999999999    0.2500000001358639 Pb
   0.9872323410712707    0.4999999999999999    0.5000000001358639 Pb
   0.9872323410712707    0.4999999999999999    0.7500000001358639 Pb
   0.9872323410712708    0.7499999999999999    0.0000000001358640 Pb
   0.9872323410712708    0.7499999999999999    0.2500000001358639 Pb
   0.9872323410712707    0.7499999999999999    0.5000000001358639 Pb
   0.9872323410712707    0.7499999999999999    0.7500000001358639 Pb
   0.1314193847381721    0.1244194385312967    0.1244321208437162 C
   0.1314193847381721    0.1244194385312967    0.3744321208437162 C
   0.1314193847381721    0.1244194385312967    0.6244321208437162 C
   0.1314193847381721    0.1244194385312967    0.8744321208437161 C
   0.1314193847381721    0.3744194385312967    0.1244321208437162 C
   0.1314193847381721    0.3744194385312967    0.3744321208437162 C
   0.1314193847381721    0.3744194385312967    0.6244321208437162 C
   0.1314193847381721    0.3744194385312967    0.8744321208437161 C
   0.1314193847381721    0.6244194385312967    0.1244321208437162 C
   0.1314193847381721    0.6244194385312967    0.3744321208437162 C
   0.1314193847381721    0.6244194385312967    0.6244321208437162 C
   0.1314193847381721    0.6244194385312967    0.8744321208437161 C
   0.1314193847381721    0.8744194385312966    0.1244321208437162 C
   0.1314193847381721    0.8744194385312966    0.3744321208437162 C
   0.1314193847381721    0.8744194385312966    0.6244321208437162 C
   0.1314193847381721    0.8744194385312966    0.8744321208437161 C
   0.3814193847381721    0.1244194385312967    0.1244321208437162 C
   0.3814193847381721    0.1244194385312967    0.3744321208437162 C
   0.3814193847381721    0.1244194385312967    0.6244321208437162 C
   0.3814193847381721    0.1244194385312967    0.8744321208437162 C
   0.3814193847381721    0.3744194385312967    0.1244321208437162 C
   0.3814193847381721    0.3744194385312967    0.3744321208437162 C
   0.3814193847381721    0.3744194385312967    0.6244321208437162 C
   0.3814193847381721    0.3744194385312967    0.8744321208437162 C
   0.3814193847381721    0.6244194385312967    0.1244321208437162 C
   0.3814193847381721    0.6244194385312967    0.3744321208437162 C
   0.3814193847381721    0.6244194385312967    0.6244321208437162 C
   0.3814193847381721    0.6244194385312967    0.8744321208437162 C
   0.3814193847381721    0.8744194385312966    0.1244321208437162 C
   0.3814193847381721    0.8744194385312966    0.3744321208437162 C
   0.3814193847381721    0.8744194385312966    0.6244321208437162 C
   0.3814193847381721    0.8744194385312966    0.8744321208437162 C
   0.6314193847381722    0.1244194385312967    0.1244321208437162 C
   0.6314193847381722    0.1244194385312967    0.3744321208437162 C
   0.6314193847381722    0.1244194385312967    0.6244321208437162 C
   0.6314193847381721    0.1244194385312967    0.8744321208437162 C
   0.6314193847381722    0.3744194385312967    0.1244321208437162 C
   0.6314193847381722    0.3744194385312967    0.3744321208437162 C
   0.6314193847381722    0.3744194385312967    0.6244321208437162 C
   0.6314193847381721    0.3744194385312967    0.8744321208437162 C
   0.6314193847381722    0.6244194385312967    0.1244321208437162 C
   0.6314193847381722    0.6244194385312967    0.3744321208437162 C
   0.6314193847381722    0.6244194385312967    0.6244321208437162 C
   0.6314193847381721    0.6244194385312967    0.8744321208437162 C
   0.6314193847381722    0.8744194385312966    0.1244321208437162 C
   0.6314193847381722    0.8744194385312966    0.3744321208437162 C
   0.6314193847381722    0.8744194385312966    0.6244321208437162 C
   0.6314193847381721    0.8744194385312966    0.8744321208437162 C
   0.8814193847381721    0.1244194385312967    0.1244321208437162 C
   0.8814193847381721    0.1244194385312967    0.3744321208437162 C
   0.8814193847381719    0.1244194385312967    0.6244321208437162 C
   0.8814193847381722    0.1244194385312967    0.8744321208437162 C