H320 Pb64 C64 I176 Br16 N128
1.0
  24.8706342423675935    0.0000000000000000    0.0000000103362805
   0.0000000000000000   25.3424933063235613    0.0000000000000000
  -0.0000033758618329    0.0000000000000000   25.5405473895976520
H Pb C I Br N
320 64 64 176 16 128
direct
   0.1687456654825743    0.1188972648737061    0.1190273229014279 H
   0.1253592408783171    0.1188972648737061    0.0412898989475880 H
   0.0600837048830439    0.1188972648737061    0.0679820908861827 H
   0.0600837056578966    0.1188972648737061    0.1700725536070574 H
   0.1253592420583500    0.1188972648737061    0.1967647463323659 H
   0.1687456654825743    0.1188972648737061    0.3690273229014279 H
   0.1253592408783171    0.1188972648737061    0.2912898989475881 H
   0.0600837048830439    0.1188972648737061    0.3179820908861827 H
   0.0600837056578966    0.1188972648737061    0.4200725536070575 H
   0.1253592420583500    0.1188972648737061    0.4467647463323659 H
   0.1687456654825743    0.1188972648737061    0.6190273229014279 H
   0.1253592408783171    0.1188972648737061    0.5412898989475881 H
   0.0600837048830439    0.1188972648737061    0.5679820908861827 H
   0.0600837056578966    0.1188972648737061    0.6700725536070575 H
   0.1253592420583500    0.1188972648737061    0.6967647463323658 H
   0.1687456654825743    0.1188972648737061    0.8690273229014279 H
   0.1253592408783171    0.1188972648737061    0.7912898989475881 H
   0.0600837048830439    0.1188972648737061    0.8179820908861827 H
   0.0600837056578966    0.1188972648737061    0.9200725536070574 H
   0.1253592420583500    0.1188972648737061    0.9467647463323660 H
   0.1687456654825743    0.3688972648737061    0.1190273229014279 H
   0.1253592408783171    0.3688972648737061    0.0412898989475880 H
   0.0600837048830439    0.3688972648737061    0.0679820908861827 H
   0.0600837056578966    0.3688972648737061    0.1700725536070574 H
   0.1253592420583500    0.3688972648737061    0.1967647463323659 H
   0.1687456654825743    0.3688972648737061    0.3690273229014279 H
   0.1253592408783171    0.3688972648737061    0.2912898989475881 H
   0.0600837048830439    0.3688972648737061    0.3179820908861827 H
   0.0600837056578966    0.3688972648737061    0.4200725536070575 H
   0.1253592420583500    0.3688972648737061    0.4467647463323659 H
   0.1687456654825743    0.3688972648737061    0.6190273229014279 H
   0.1253592408783171    0.3688972648737061    0.5412898989475881 H
   0.0600837048830439    0.3688972648737061    0.5679820908861827 H
   0.0600837056578966    0.3688972648737061    0.6700725536070575 H
   0.1253592420583500    0.3688972648737061    0.6967647463323658 H
   0.1687456654825743    0.3688972648737061    0.8690273229014279 H
   0.1253592408783171    0.3688972648737061    0.7912898989475881 H
   0.0600837048830439    0.3688972648737061    0.8179820908861827 H
   0.0600837056578966    0.3688972648737061    0.9200725536070574 H
   0.1253592420583500    0.3688972648737061    0.9467647463323660 H
   0.1687456654825743    0.6188972648737061    0.1190273229014279 H
   0.1253592408783171    0.6188972648737061    0.0412898989475880 H
   0.0600837048830439    0.6188972648737061    0.0679820908861827 H
   0.0600837056578966    0.6188972648737061    0.1700725536070574 H
   0.1253592420583500    0.6188972648737061    0.1967647463323659 H
   0.1687456654825743    0.6188972648737061    0.3690273229014279 H
   0.1253592408783171    0.6188972648737061    0.2912898989475881 H
   0.0600837048830439    0.6188972648737061    0.3179820908861827 H
   0.0600837056578966    0.6188972648737061    0.4200725536070575 H
   0.1253592420583500    0.6188972648737061    0.4467647463323659 H
   0.1687456654825743    0.6188972648737061    0.6190273229014279 H
   0.1253592408783171    0.6188972648737061    0.5412898989475881 H
   0.0600837048830439    0.6188972648737061    0.5679820908861827 H
   0.0600837056578966    0.6188972648737061    0.6700725536070575 H
   0.1253592420583500    0.6188972648737061    0.6967647463323658 H
   0.1687456654825743    0.6188972648737061    0.8690273229014279 H
   0.1253592408783171    0.6188972648737061    0.7912898989475881 H
   0.0600837048830439    0.6188972648737061    0.8179820908861827 H
   0.0600837056578966    0.6188972648737061    0.9200725536070574 H
   0.1253592420583500    0.6188972648737061    0.9467647463323660 H
   0.1687456654825743    0.8688972648737062    0.1190273229014279 H
   0.1253592408783171    0.8688972648737062    0.0412898989475880 H
   0.0600837048830439    0.8688972648737062    0.0679820908861827 H
   0.0600837056578966    0.8688972648737062    0.1700725536070574 H
   0.1253592420583500    0.8688972648737062    0.1967647463323659 H
   0.1687456654825743    0.8688972648737062    0.3690273229014279 H
   0.1253592408783171    0.8688972648737062    0.2912898989475881 H
   0.0600837048830439    0.8688972648737062    0.3179820908861827 H
   0.0600837056578966    0.8688972648737062    0.4200725536070575 H
   0.1253592420583500    0.8688972648737062    0.4467647463323659 H
   0.1687456654825743    0.8688972648737062    0.6190273229014279 H
   0.1253592408783171    0.8688972648737062    0.5412898989475881 H
   0.0600837048830439    0.8688972648737062    0.5679820908861827 H
   0.0600837056578966    0.8688972648737062    0.6700725536070575 H
   0.1253592420583500    0.8688972648737062    0.6967647463323658 H
   0.1687456654825743    0.8688972648737062    0.8690273229014279 H
   0.1253592408783171    0.8688972648737062    0.7912898989475881 H
   0.0600837048830439    0.8688972648737062    0.8179820908861827 H
   0.0600837056578966    0.8688972648737062    0.9200725536070574 H
   0.1253592420583500    0.8688972648737062    0.9467647463323660 H
   0.4187456654825743    0.1188972648737061    0.1190273229014279 H
   0.3753592408783171    0.1188972648737061    0.0412898989475880 H
   0.3100837048830439    0.1188972648737061    0.0679820908861827 H
   0.3100837056578966    0.1188972648737061    0.1700725536070574 H
   0.3753592420583499    0.1188972648737061    0.1967647463323659 H
   0.4187456654825742    0.1188972648737061    0.3690273229014279 H
   0.3753592408783171    0.1188972648737061    0.2912898989475881 H
   0.3100837048830439    0.1188972648737061    0.3179820908861826 H
   0.3100837056578966    0.1188972648737061    0.4200725536070574 H
   0.3753592420583500    0.1188972648737061    0.4467647463323659 H
   0.4187456654825742    0.1188972648737061    0.6190273229014279 H
   0.3753592408783171    0.1188972648737061    0.5412898989475881 H
   0.3100837048830439    0.1188972648737061    0.5679820908861827 H
   0.3100837056578966    0.1188972648737061    0.6700725536070575 H
   0.3753592420583500    0.1188972648737061    0.6967647463323658 H
   0.4187456654825743    0.1188972648737061    0.8690273229014279 H
   0.3753592408783171    0.1188972648737061    0.7912898989475881 H
   0.3100837048830439    0.1188972648737061    0.8179820908861828 H
   0.3100837056578966    0.1188972648737061    0.9200725536070574 H
   0.3753592420583500    0.1188972648737061    0.9467647463323660 H
   0.4187456654825743    0.3688972648737061    0.1190273229014279 H
   0.3753592408783171    0.3688972648737061    0.0412898989475880 H
   0.3100837048830439    0.3688972648737061    0.0679820908861827 H
   0.3100837056578966    0.3688972648737061    0.1700725536070574 H
   0.3753592420583499    0.3688972648737061    0.1967647463323659 H
   0.4187456654825742    0.3688972648737061    0.3690273229014279 H
   0.3753592408783171    0.3688972648737061    0.2912898989475881 H
   0.3100837048830439    0.3688972648737061    0.3179820908861826 H
   0.3100837056578966    0.3688972648737061    0.4200725536070574 H
   0.3753592420583500    0.3688972648737061    0.4467647463323659 H
   0.4187456654825742    0.3688972648737061    0.6190273229014279 H
   0.3753592408783171    0.3688972648737061    0.5412898989475881 H
   0.3100837048830439    0.3688972648737061    0.5679820908861827 H
   0.3100837056578966    0.3688972648737061    0.6700725536070575 H
   0.3753592420583500    0.3688972648737061    0.6967647463323658 H
   0.4187456654825743    0.3688972648737061    0.8690273229014279 H
   0.3753592408783171    0.3688972648737061    0.7912898989475881 H
   0.3100837048830439    0.3688972648737061    0.8179820908861828 H
   0.3100837056578966    0.3688972648737061    0.9200725536070574 H
   0.3753592420583500    0.3688972648737061    0.9467647463323660 H
   0.4187456654825743    0.6188972648737061    0.1190273229014279 H
   0.3753592408783171    0.6188972648737061    0.0412898989475880 H
   0.3100837048830439    0.6188972648737061    0.0679820908861827 H
   0.3100837056578966    0.6188972648737061    0.1700725536070574 H
   0.3753592420583499    0.6188972648737061    0.1967647463323659 H
   0.4187456654825742    0.6188972648737061    0.3690273229014279 H
   0.3753592408783171    0.6188972648737061    0.2912898989475881 H
   0.3100837048830439    0.6188972648737061    0.3179820908861826 H
   0.3100837056578966    0.6188972648737061    0.4200725536070574 H
   0.3753592420583500    0.6188972648737061    0.4467647463323659 H
   0.4187456654825742    0.6188972648737061    0.6190273229014279 H
   0.3753592408783171    0.6188972648737061    0.5412898989475881 H
   0.3100837048830439    0.6188972648737061    0.5679820908861827 H
   0.3100837056578966    0.6188972648737061    0.6700725536070575 H
   0.3753592420583500    0.6188972648737061    0.6967647463323658 H
   0.4187456654825743    0.6188972648737061    0.8690273229014279 H
   0.3753592408783171    0.6188972648737061    0.7912898989475881 H
   0.3100837048830439    0.6188972648737061    0.8179820908861828 H
   0.3100837056578966    0.6188972648737061    0.9200725536070574 H
   0.3753592420583500    0.6188972648737061    0.9467647463323660 H
   0.4187456654825743    0.8688972648737062    0.1190273229014279 H
   0.3753592408783171    0.8688972648737062    0.0412898989475880 H
   0.3100837048830439    0.8688972648737062    0.0679820908861827 H
   0.3100837056578966    0.8688972648737062    0.1700725536070574 H
   0.3753592420583499    0.8688972648737062    0.1967647463323659 H
   0.4187456654825742    0.8688972648737062    0.3690273229014279 H
   0.3753592408783171    0.8688972648737062    0.2912898989475881 H
   0.3100837048830439    0.8688972648737062    0.3179820908861826 H
   0.3100837056578966    0.8688972648737062    0.4200725536070574 H
   0.3753592420583500    0.8688972648737062    0.4467647463323659 H
   0.4187456654825742    0.8688972648737062    0.6190273229014279 H
   0.3753592408783171    0.8688972648737062    0.5412898989475881 H
   0.3100837048830439    0.8688972648737062    0.5679820908861827 H
   0.3100837056578966    0.8688972648737062    0.6700725536070575 H
   0.3753592420583500    0.8688972648737062    0.6967647463323658 H
   0.4187456654825743    0.8688972648737062    0.8690273229014279 H
   0.3753592408783171    0.8688972648737062    0.7912898989475881 H
   0.3100837048830439    0.8688972648737062    0.8179820908861828 H
   0.3100837056578966    0.8688972648737062    0.9200725536070574 H
   0.3753592420583500    0.8688972648737062    0.9467647463323660 H
   0.6687456654825742    0.1188972648737061    0.1190273229014279 H
   0.6253592408783172    0.1188972648737061    0.0412898989475880 H
   0.5600837048830438    0.1188972648737061    0.0679820908861827 H
   0.5600837056578966    0.1188972648737061    0.1700725536070574 H
   0.6253592420583500    0.1188972648737061    0.1967647463323659 H
   0.6687456654825744    0.1188972648737061    0.3690273229014280 H
   0.6253592408783172    0.1188972648737061    0.2912898989475881 H
   0.5600837048830439    0.1188972648737061    0.3179820908861827 H
   0.5600837056578966    0.1188972648737061    0.4200725536070575 H
   0.6253592420583500    0.1188972648737061    0.4467647463323659 H
   0.6687456654825743    0.1188972648737061    0.6190273229014280 H
   0.6253592408783171    0.1188972648737061    0.5412898989475881 H
   0.5600837048830439    0.1188972648737061    0.5679820908861826 H
   0.5600837056578966    0.1188972648737061    0.6700725536070574 H
   0.6253592420583499    0.1188972648737061    0.6967647463323658 H
   0.6687456654825744    0.1188972648737061    0.8690273229014279 H
   0.6253592408783171    0.1188972648737061    0.7912898989475882 H
   0.5600837048830439    0.1188972648737061    0.8179820908861828 H
   0.5600837056578966    0.1188972648737061    0.9200725536070575 H
   0.6253592420583500    0.1188972648737061    0.9467647463323660 H
   0.6687456654825742    0.3688972648737061    0.1190273229014279 H
   0.6253592408783172    0.3688972648737061    0.0412898989475880 H
   0.5600837048830438    0.3688972648737061    0.0679820908861827 H
   0.5600837056578966    0.3688972648737061    0.1700725536070574 H
   0.6253592420583500    0.3688972648737061    0.1967647463323659 H
   0.6687456654825744    0.3688972648737061    0.3690273229014280 H
   0.6253592408783172    0.3688972648737061    0.2912898989475881 H
   0.5600837048830439    0.3688972648737061    0.3179820908861827 H
   0.5600837056578966    0.3688972648737061    0.4200725536070575 H
   0.6253592420583500    0.3688972648737061    0.4467647463323659 H
   0.6687456654825743    0.3688972648737061    0.6190273229014280 H
   0.6253592408783171    0.3688972648737061    0.5412898989475881 H
   0.5600837048830439    0.3688972648737061    0.5679820908861826 H
   0.5600837056578966    0.3688972648737061    0.6700725536070574 H
   0.6253592420583499    0.3688972648737061    0.6967647463323658 H
   0.6687456654825744    0.3688972648737061    0.8690273229014279 H
   0.6253592408783171    0.3688972648737061    0.7912898989475882 H
   0.5600837048830439    0.3688972648737061    0.8179820908861828 H
   0.5600837056578966    0.3688972648737061    0.9200725536070575 H
   0.6253592420583500    0.3688972648737061    0.9467647463323660 H
   0.6687456654825742    0.6188972648737061    0.1190273229014279 H
   0.6253592408783172    0.6188972648737061    0.0412898989475880 H
   0.5600837048830438    0.6188972648737061    0.0679820908861827 H
   0.5600837056578966    0.6188972648737061    0.1700725536070574 H
   0.6253592420583500    0.6188972648737061    0.1967647463323659 H
   0.6687456654825744    0.6188972648737061    0.3690273229014280 H
   0.6253592408783172    0.6188972648737061    0.2912898989475881 H
   0.5600837048830439    0.6188972648737061    0.3179820908861827 H
   0.5600837056578966    0.6188972648737061    0.4200725536070575 H
   0.6253592420583500    0.6188972648737061    0.4467647463323659 H
   0.6687456654825743    0.6188972648737061    0.6190273229014280 H
   0.6253592408783171    0.6188972648737061    0.5412898989475881 H
   0.5600837048830439    0.6188972648737061    0.5679820908861826 H
   0.5600837056578966    0.6188972648737061    0.6700725536070574 H
   0.6253592420583499    0.6188972648737061    0.6967647463323658 H
   0.6687456654825744    0.6188972648737061    0.8690273229014279 H
   0.6253592408783171    0.6188972648737061    0.7912898989475882 H
   0.5600837048830439    0.6188972648737061    0.8179820908861828 H
   0.5600837056578966    0.6188972648737061    0.9200725536070575 H
   0.6253592420583500    0.6188972648737061    0.9467647463323660 H
   0.6687456654825742    0.8688972648737062    0.1190273229014279 H
   0.6253592408783172    0.8688972648737062    0.0412898989475880 H
   0.5600837048830438    0.8688972648737062    0.0679820908861827 H
   0.5600837056578966    0.8688972648737062    0.1700725536070574 H
   0.6253592420583500    0.8688972648737062    0.1967647463323659 H
   0.6687456654825744    0.8688972648737062    0.3690273229014280 H
   0.6253592408783172    0.8688972648737062    0.2912898989475881 H
   0.5600837048830439    0.8688972648737062    0.3179820908861827 H
   0.5600837056578966    0.8688972648737062    0.4200725536070575 H
   0.6253592420583500    0.8688972648737062    0.4467647463323659 H
   0.6687456654825743    0.8688972648737062    0.6190273229014280 H
   0.6253592408783171    0.8688972648737062    0.5412898989475881 H
   0.5600837048830439    0.8688972648737062    0.5679820908861826 H
   0.5600837056578966    0.8688972648737062    0.6700725536070574 H
   0.6253592420583499    0.8688972648737062    0.6967647463323658 H
   0.6687456654825744    0.8688972648737062    0.8690273229014279 H
   0.6253592408783171    0.8688972648737062    0.7912898989475882 H
   0.5600837048830439    0.8688972648737062    0.8179820908861828 H
   0.5600837056578966    0.8688972648737062    0.9200725536070575 H
   0.6253592420583500    0.8688972648737062    0.9467647463323660 H
   0.9187456654825743    0.1188972648737061    0.1190273229014279 H
   0.8753592408783171    0.1188972648737061    0.0412898989475880 H
   0.8100837048830438    0.1188972648737061    0.0679820908861827 H
   0.8100837056578966    0.1188972648737061    0.1700725536070574 H
   0.8753592420583500    0.1188972648737061    0.1967647463323659 H
   0.9187456654825743    0.1188972648737061    0.3690273229014280 H
   0.8753592408783170    0.1188972648737061    0.2912898989475881 H
   0.8100837048830438    0.1188972648737061    0.3179820908861827 H
   0.8100837056578964    0.1188972648737061    0.4200725536070575 H
   0.8753592420583499    0.1188972648737061    0.4467647463323659 H
   0.9187456654825742    0.1188972648737061    0.6190273229014279 H
   0.8753592408783171    0.1188972648737061    0.5412898989475879 H
   0.8100837048830439    0.1188972648737061    0.5679820908861827 H
   0.8100837056578966    0.1188972648737061    0.6700725536070574 H
   0.8753592420583500    0.1188972648737061    0.6967647463323660 H
   0.9187456654825742    0.1188972648737061    0.8690273229014279 H
   0.8753592408783171    0.1188972648737061    0.7912898989475882 H
   0.8100837048830438    0.1188972648737061    0.8179820908861827 H
   0.8100837056578964    0.1188972648737061    0.9200725536070574 H
   0.8753592420583499    0.1188972648737061    0.9467647463323661 H
   0.9187456654825743    0.3688972648737061    0.1190273229014279 H
   0.8753592408783171    0.3688972648737061    0.0412898989475880 H
   0.8100837048830438    0.3688972648737061    0.0679820908861827 H
   0.8100837056578966    0.3688972648737061    0.1700725536070574 H
   0.8753592420583500    0.3688972648737061    0.1967647463323659 H
   0.9187456654825743    0.3688972648737061    0.3690273229014280 H
   0.8753592408783170    0.3688972648737061    0.2912898989475881 H
   0.8100837048830438    0.3688972648737061    0.3179820908861827 H
   0.8100837056578964    0.3688972648737061    0.4200725536070575 H
   0.8753592420583499    0.3688972648737061    0.4467647463323659 H
   0.9187456654825742    0.3688972648737061    0.6190273229014279 H
   0.8753592408783171    0.3688972648737061    0.5412898989475879 H
   0.8100837048830439    0.3688972648737061    0.5679820908861827 H
   0.8100837056578966    0.3688972648737061    0.6700725536070574 H
   0.8753592420583500    0.3688972648737061    0.6967647463323660 H
   0.9187456654825742    0.3688972648737061    0.8690273229014279 H
   0.8753592408783171    0.3688972648737061    0.7912898989475882 H
   0.8100837048830438    0.3688972648737061    0.8179820908861827 H
   0.8100837056578964    0.3688972648737061    0.9200725536070574 H
   0.8753592420583499    0.3688972648737061    0.9467647463323661 H
   0.9187456654825743    0.6188972648737061    0.1190273229014279 H
   0.8753592408783171    0.6188972648737061    0.0412898989475880 H
   0.8100837048830438    0.6188972648737061    0.0679820908861827 H
   0.8100837056578966    0.6188972648737061    0.1700725536070574 H
   0.8753592420583500    0.6188972648737061    0.1967647463323659 H
   0.9187456654825743    0.6188972648737061    0.3690273229014280 H
   0.8753592408783170    0.6188972648737061    0.2912898989475881 H
   0.8100837048830438    0.6188972648737061    0.3179820908861827 H
   0.8100837056578964    0.6188972648737061    0.4200725536070575 H
   0.8753592420583499    0.6188972648737061    0.4467647463323659 H
   0.9187456654825742    0.6188972648737061    0.6190273229014279 H
   0.8753592408783171    0.6188972648737061    0.5412898989475879 H
   0.8100837048830439    0.6188972648737061    0.5679820908861827 H
   0.8100837056578966    0.6188972648737061    0.6700725536070574 H
   0.8753592420583500    0.6188972648737061    0.6967647463323660 H
   0.9187456654825742    0.6188972648737061    0.8690273229014279 H
   0.8753592408783171    0.6188972648737061    0.7912898989475882 H
   0.8100837048830438    0.6188972648737061    0.8179820908861827 H
   0.8100837056578964    0.6188972648737061    0.9200725536070574 H
   0.8753592420583499    0.6188972648737061    0.9467647463323661 H
   0.9187456654825743    0.8688972648737062    0.1190273229014279 H
   0.8753592408783171    0.8688972648737062    0.0412898989475880 H
   0.8100837048830438    0.8688972648737062    0.0679820908861827 H
   0.8100837056578966    0.8688972648737062    0.1700725536070574 H
   0.8753592420583500    0.8688972648737062    0.1967647463323659 H
   0.9187456654825743    0.8688972648737062    0.3690273229014280 H
   0.8753592408783170    0.8688972648737062    0.2912898989475881 H
   0.8100837048830438    0.8688972648737062    0.3179820908861827 H
   0.8100837056578964    0.8688972648737062    0.4200725536070575 H
   0.8753592420583499    0.8688972648737062    0.4467647463323659 H
   0.9187456654825742    0.8688972648737062    0.6190273229014279 H
   0.8753592408783171    0.8688972648737062    0.5412898989475879 H
   0.8100837048830439    0.8688972648737062    0.5679820908861827 H
   0.8100837056578966    0.8688972648737062    0.6700725536070574 H
   0.8753592420583500    0.8688972648737062    0.6967647463323660 H
   0.9187456654825742    0.8688972648737062    0.8690273229014279 H
   0.8753592408783171    0.8688972648737062    0.7912898989475882 H
   0.8100837048830438    0.8688972648737062    0.8179820908861827 H
   0.8100837056578964    0.8688972648737062    0.9200725536070574 H
   0.8753592420583499    0.8688972648737062    0.9467647463323661 H
   0.2250660648014603    0.0000000000000000    0.0000000013562707 Pb
   0.2250660648014603    0.0000000000000000    0.2500000013562707 Pb
   0.2250660648014603    0.0000000000000000    0.5000000013562708 Pb
   0.2250660648014603    0.0000000000000000    0.7500000013562708 Pb
   0.2250660648014603    0.2500000000000000    0.0000000013562707 Pb
   0.2250660648014603    0.2500000000000000    0.2500000013562707 Pb
   0.2250660648014603    0.2500000000000000    0.5000000013562708 Pb
   0.2250660648014603    0.2500000000000000    0.7500000013562708 Pb
   0.2250660648014603    0.5000000000000000    0.0000000013562707 Pb
   0.2250660648014603    0.5000000000000000    0.2500000013562707 Pb
   0.2250660648014603    0.5000000000000000    0.5000000013562708 Pb
   0.2250660648014603    0.5000000000000000    0.7500000013562708 Pb
   0.2250660648014603    0.7500000000000000    0.0000000013562707 Pb
   0.2250660648014603    0.7500000000000000    0.2500000013562707 Pb
   0.2250660648014603    0.7500000000000000    0.5000000013562708 Pb
   0.2250660648014603    0.7500000000000000    0.7500000013562708 Pb
   0.4750660648014603    0.0000000000000000    0.0000000013562707 Pb
   0.4750660648014602    0.0000000000000000    0.2500000013562708 Pb
   0.4750660648014603    0.0000000000000000    0.5000000013562707 Pb
   0.4750660648014603    0.0000000000000000    0.7500000013562708 Pb
   0.4750660648014603    0.2500000000000000    0.0000000013562707 Pb
   0.4750660648014602    0.2500000000000000    0.2500000013562708 Pb
   0.4750660648014603    0.2500000000000000    0.5000000013562707 Pb
   0.4750660648014603    0.2500000000000000    0.7500000013562708 Pb
   0.4750660648014603    0.5000000000000000    0.0000000013562707 Pb
   0.4750660648014602    0.5000000000000000    0.2500000013562708 Pb
   0.4750660648014603    0.5000000000000000    0.5000000013562707 Pb
   0.4750660648014603    0.5000000000000000    0.7500000013562708 Pb
   0.4750660648014603    0.7500000000000000    0.0000000013562707 Pb
   0.4750660648014602    0.7500000000000000    0.2500000013562708 Pb
   0.4750660648014603    0.7500000000000000    0.5000000013562707 Pb
   0.4750660648014603    0.7500000000000000    0.7500000013562708 Pb
   0.7250660648014604    0.0000000000000000    0.0000000013562707 Pb
   0.7250660648014603    0.0000000000000000    0.2500000013562707 Pb
   0.7250660648014602    0.0000000000000000    0.5000000013562707 Pb
   0.7250660648014603    0.0000000000000000    0.7500000013562707 Pb
   0.7250660648014604    0.2500000000000000    0.0000000013562707 Pb
   0.7250660648014603    0.2500000000000000    0.2500000013562707 Pb
   0.7250660648014602    0.2500000000000000    0.5000000013562707 Pb
   0.7250660648014603    0.2500000000000000    0.7500000013562707 Pb
   0.7250660648014604    0.5000000000000000    0.0000000013562707 Pb
   0.7250660648014603    0.5000000000000000    0.2500000013562707 Pb
   0.7250660648014602    0.5000000000000000    0.5000000013562707 Pb
   0.7250660648014603    0.5000000000000000    0.7500000013562707 Pb
   0.7250660648014604    0.7500000000000000    0.0000000013562707 Pb
   0.7250660648014603    0.7500000000000000    0.2500000013562707 Pb
   0.7250660648014602    0.7500000000000000    0.5000000013562707 Pb
   0.7250660648014603    0.7500000000000000    0.7500000013562707 Pb
   0.9750660648014601    0.0000000000000000    0.0000000013562707 Pb
   0.9750660648014601    0.0000000000000000    0.2500000013562708 Pb
   0.9750660648014604    0.0000000000000000    0.5000000013562707 Pb
   0.9750660648014603    0.0000000000000000    0.7500000013562708 Pb
   0.9750660648014601    0.2500000000000000    0.0000000013562707 Pb
   0.9750660648014601    0.2500000000000000    0.2500000013562708 Pb
   0.9750660648014604    0.2500000000000000    0.5000000013562707 Pb
   0.9750660648014603    0.2500000000000000    0.7500000013562708 Pb
   0.9750660648014601    0.5000000000000000    0.0000000013562707 Pb
   0.9750660648014601    0.5000000000000000    0.2500000013562708 Pb
   0.9750660648014604    0.5000000000000000    0.5000000013562707 Pb
   0.9750660648014603    0.5000000000000000    0.7500000013562708 Pb
   0.9750660648014601    0.7500000000000000    0.0000000013562707 Pb
   0.9750660648014601    0.7500000000000000    0.2500000013562708 Pb
   0.9750660648014604    0.7500000000000000    0.5000000013562707 Pb
   0.9750660648014603    0.7500000000000000    0.7500000013562708 Pb
   0.1246796445292045    0.1188972648737061    0.1190270814865270 C
   0.1246796445292045    0.1188972648737061    0.3690270814865270 C
   0.1246796445292045    0.1188972648737061    0.6190270814865270 C
   0.1246796445292045    0.1188972648737061    0.8690270814865272 C
   0.1246796445292045    0.3688972648737061    0.1190270814865270 C
   0.1246796445292045    0.3688972648737061    0.3690270814865270 C
   0.1246796445292045    0.3688972648737061    0.6190270814865270 C
   0.1246796445292045    0.3688972648737061    0.8690270814865272 C
   0.1246796445292045    0.6188972648737061    0.1190270814865270 C
   0.1246796445292045    0.6188972648737061    0.3690270814865270 C
   0.1246796445292045    0.6188972648737061    0.6190270814865270 C
   0.1246796445292045    0.6188972648737061    0.8690270814865272 C
   0.1246796445292045    0.8688972648737062    0.1190270814865270 C
   0.1246796445292045    0.8688972648737062    0.3690270814865270 C
   0.1246796445292045    0.8688972648737062    0.6190270814865270 C
   0.1246796445292045    0.8688972648737062    0.8690270814865272 C
   0.3746796445292045    0.1188972648737061    0.1190270814865270 C
   0.3746796445292045    0.1188972648737061    0.3690270814865270 C
   0.3746796445292045    0.1188972648737061    0.6190270814865270 C
   0.3746796445292045    0.1188972648737061    0.8690270814865271 C
   0.3746796445292045    0.3688972648737061    0.1190270814865270 C
   0.3746796445292045    0.3688972648737061    0.3690270814865270 C
   0.3746796445292045    0.3688972648737061    0.6190270814865270 C
   0.3746796445292045    0.3688972648737061    0.8690270814865271 C
   0.3746796445292045    0.6188972648737061    0.1190270814865270 C
   0.3746796445292045    0.6188972648737061    0.3690270814865270 C
   0.3746796445292045    0.6188972648737061    0.6190270814865270 C
   0.3746796445292045    0.6188972648737061    0.8690270814865271 C
   0.3746796445292045    0.8688972648737062    0.1190270814865270 C
   0.3746796445292045    0.8688972648737062    0.3690270814865270 C
   0.3746796445292045    0.8688972648737062    0.6190270814865270 C
   0.3746796445292045    0.8688972648737062    0.8690270814865271 C
   0.6246796445292045    0.1188972648737061    0.1190270814865270 C
   0.6246796445292045    0.1188972648737061    0.3690270814865271 C
   0.6246796445292045    0.1188972648737061    0.6190270814865271 C
   0.6246796445292045    0.1188972648737061    0.8690270814865271 C
   0.6246796445292045    0.3688972648737061    0.1190270814865270 C
   0.6246796445292045    0.3688972648737061    0.3690270814865271 C
   0.6246796445292045    0.3688972648737061    0.6190270814865271 C
   0.6246796445292045    0.3688972648737061    0.8690270814865271 C
   0.6246796445292045    0.6188972648737061    0.1190270814865270 C
   0.6246796445292045    0.6188972648737061    0.3690270814865271 C
   0.6246796445292045    0.6188972648737061    0.6190270814865271 C
   0.6246796445292045    0.6188972648737061    0.8690270814865271 C
   0.6246796445292045    0.8688972648737062    0.1190270814865270 C
   0.6246796445292045    0.8688972648737062    0.3690270814865271 C
   0.6246796445292045    0.8688972648737062    0.6190270814865271 C
   0.6246796445292045    0.8688972648737062    0.8690270814865271 C
   0.8746796445292044    0.1188972648737061    0.1190270814865270 C
   0.8746796445292044    0.1188972648737061    0.3690270814865270 C
   0.8746796445292045    0.1188972648737061    0.6190270814865271 C
   0.8746796445292044    0.1188972648737061    0.8690270814865271 C