H320 Pb64 C64 I64 Br128 N128
1.0
  23.9778044364390368    0.0000000000000000    0.0000001023826801
   0.0000000000000000   24.5551408200555024    0.0000000000000000
  -0.0000031588308040    0.0000000000000000   24.7639522774861476
H Pb C I Br N
320 64 64 64 128 128
direct
   0.1750290241663005    0.1227096664312783    0.1227600074083862 H
   0.1300270770069520    0.1227096664312783    0.0425847456395135 H
   0.0623209620386156    0.1227096664312783    0.0701140023493533 H
   0.0623209623400370    0.1227096664312783    0.1754060119579723 H
   0.1300270774659905    0.1227096664312783    0.2029352689738477 H
   0.1750290241663005    0.1227096664312783    0.3727600074083862 H
   0.1300270770069520    0.1227096664312783    0.2925847456395134 H
   0.0623209620386156    0.1227096664312783    0.3201140023493533 H
   0.0623209623400370    0.1227096664312783    0.4254060119579723 H
   0.1300270774659905    0.1227096664312783    0.4529352689738476 H
   0.1750290241663005    0.1227096664312783    0.6227600074083862 H
   0.1300270770069520    0.1227096664312783    0.5425847456395134 H
   0.0623209620386156    0.1227096664312783    0.5701140023493533 H
   0.0623209623400370    0.1227096664312783    0.6754060119579722 H
   0.1300270774659905    0.1227096664312783    0.7029352689738476 H
   0.1750290241663005    0.1227096664312783    0.8727600074083862 H
   0.1300270770069520    0.1227096664312783    0.7925847456395135 H
   0.0623209620386156    0.1227096664312783    0.8201140023493534 H
   0.0623209623400370    0.1227096664312783    0.9254060119579722 H
   0.1300270774659905    0.1227096664312783    0.9529352689738477 H
   0.1750290241663005    0.3727096664312783    0.1227600074083862 H
   0.1300270770069520    0.3727096664312783    0.0425847456395135 H
   0.0623209620386156    0.3727096664312783    0.0701140023493533 H
   0.0623209623400370    0.3727096664312783    0.1754060119579723 H
   0.1300270774659905    0.3727096664312783    0.2029352689738477 H
   0.1750290241663005    0.3727096664312783    0.3727600074083862 H
   0.1300270770069520    0.3727096664312783    0.2925847456395134 H
   0.0623209620386156    0.3727096664312783    0.3201140023493533 H
   0.0623209623400370    0.3727096664312783    0.4254060119579723 H
   0.1300270774659905    0.3727096664312783    0.4529352689738476 H
   0.1750290241663005    0.3727096664312783    0.6227600074083862 H
   0.1300270770069520    0.3727096664312783    0.5425847456395134 H
   0.0623209620386156    0.3727096664312783    0.5701140023493533 H
   0.0623209623400370    0.3727096664312783    0.6754060119579722 H
   0.1300270774659905    0.3727096664312783    0.7029352689738476 H
   0.1750290241663005    0.3727096664312783    0.8727600074083862 H
   0.1300270770069520    0.3727096664312783    0.7925847456395135 H
   0.0623209620386156    0.3727096664312783    0.8201140023493534 H
   0.0623209623400370    0.3727096664312783    0.9254060119579722 H
   0.1300270774659905    0.3727096664312783    0.9529352689738477 H
   0.1750290241663005    0.6227096664312783    0.1227600074083862 H
   0.1300270770069520    0.6227096664312783    0.0425847456395135 H
   0.0623209620386156    0.6227096664312783    0.0701140023493533 H
   0.0623209623400370    0.6227096664312783    0.1754060119579723 H
   0.1300270774659905    0.6227096664312783    0.2029352689738477 H
   0.1750290241663005    0.6227096664312783    0.3727600074083862 H
   0.1300270770069520    0.6227096664312783    0.2925847456395134 H
   0.0623209620386156    0.6227096664312783    0.3201140023493533 H
   0.0623209623400370    0.6227096664312783    0.4254060119579723 H
   0.1300270774659905    0.6227096664312783    0.4529352689738476 H
   0.1750290241663005    0.6227096664312783    0.6227600074083862 H
   0.1300270770069520    0.6227096664312783    0.5425847456395134 H
   0.0623209620386156    0.6227096664312783    0.5701140023493533 H
   0.0623209623400370    0.6227096664312783    0.6754060119579722 H
   0.1300270774659905    0.6227096664312783    0.7029352689738476 H
   0.1750290241663005    0.6227096664312783    0.8727600074083862 H
   0.1300270770069520    0.6227096664312783    0.7925847456395135 H
   0.0623209620386156    0.6227096664312783    0.8201140023493534 H
   0.0623209623400370    0.6227096664312783    0.9254060119579722 H
   0.1300270774659905    0.6227096664312783    0.9529352689738477 H
   0.1750290241663005    0.8727096664312785    0.1227600074083862 H
   0.1300270770069520    0.8727096664312785    0.0425847456395135 H
   0.0623209620386156    0.8727096664312785    0.0701140023493533 H
   0.0623209623400370    0.8727096664312785    0.1754060119579723 H
   0.1300270774659905    0.8727096664312785    0.2029352689738477 H
   0.1750290241663005    0.8727096664312785    0.3727600074083862 H
   0.1300270770069520    0.8727096664312785    0.2925847456395134 H
   0.0623209620386156    0.8727096664312785    0.3201140023493533 H
   0.0623209623400370    0.8727096664312785    0.4254060119579723 H
   0.1300270774659905    0.8727096664312785    0.4529352689738476 H
   0.1750290241663005    0.8727096664312785    0.6227600074083862 H
   0.1300270770069520    0.8727096664312785    0.5425847456395134 H
   0.0623209620386156    0.8727096664312785    0.5701140023493533 H
   0.0623209623400370    0.8727096664312785    0.6754060119579722 H
   0.1300270774659905    0.8727096664312785    0.7029352689738476 H
   0.1750290241663005    0.8727096664312785    0.8727600074083862 H
   0.1300270770069520    0.8727096664312785    0.7925847456395135 H
   0.0623209620386156    0.8727096664312785    0.8201140023493534 H
   0.0623209623400370    0.8727096664312785    0.9254060119579722 H
   0.1300270774659905    0.8727096664312785    0.9529352689738477 H
   0.4250290241663005    0.1227096664312783    0.1227600074083862 H
   0.3800270770069520    0.1227096664312783    0.0425847456395135 H
   0.3123209620386156    0.1227096664312783    0.0701140023493533 H
   0.3123209623400370    0.1227096664312783    0.1754060119579724 H
   0.3800270774659905    0.1227096664312783    0.2029352689738477 H
   0.4250290241663005    0.1227096664312783    0.3727600074083862 H
   0.3800270770069520    0.1227096664312783    0.2925847456395135 H
   0.3123209620386155    0.1227096664312783    0.3201140023493533 H
   0.3123209623400370    0.1227096664312783    0.4254060119579723 H
   0.3800270774659905    0.1227096664312783    0.4529352689738477 H
   0.4250290241663006    0.1227096664312783    0.6227600074083862 H
   0.3800270770069520    0.1227096664312783    0.5425847456395134 H
   0.3123209620386155    0.1227096664312783    0.5701140023493533 H
   0.3123209623400370    0.1227096664312783    0.6754060119579723 H
   0.3800270774659905    0.1227096664312783    0.7029352689738476 H
   0.4250290241663006    0.1227096664312783    0.8727600074083863 H
   0.3800270770069520    0.1227096664312783    0.7925847456395135 H
   0.3123209620386156    0.1227096664312783    0.8201140023493534 H
   0.3123209623400370    0.1227096664312783    0.9254060119579723 H
   0.3800270774659905    0.1227096664312783    0.9529352689738477 H
   0.4250290241663005    0.3727096664312783    0.1227600074083862 H
   0.3800270770069520    0.3727096664312783    0.0425847456395135 H
   0.3123209620386156    0.3727096664312783    0.0701140023493533 H
   0.3123209623400370    0.3727096664312783    0.1754060119579724 H
   0.3800270774659905    0.3727096664312783    0.2029352689738477 H
   0.4250290241663005    0.3727096664312783    0.3727600074083862 H
   0.3800270770069520    0.3727096664312783    0.2925847456395135 H
   0.3123209620386155    0.3727096664312783    0.3201140023493533 H
   0.3123209623400370    0.3727096664312783    0.4254060119579723 H
   0.3800270774659905    0.3727096664312783    0.4529352689738477 H
   0.4250290241663006    0.3727096664312783    0.6227600074083862 H
   0.3800270770069520    0.3727096664312783    0.5425847456395134 H
   0.3123209620386155    0.3727096664312783    0.5701140023493533 H
   0.3123209623400370    0.3727096664312783    0.6754060119579723 H
   0.3800270774659905    0.3727096664312783    0.7029352689738476 H
   0.4250290241663006    0.3727096664312783    0.8727600074083863 H
   0.3800270770069520    0.3727096664312783    0.7925847456395135 H
   0.3123209620386156    0.3727096664312783    0.8201140023493534 H
   0.3123209623400370    0.3727096664312783    0.9254060119579723 H
   0.3800270774659905    0.3727096664312783    0.9529352689738477 H
   0.4250290241663005    0.6227096664312783    0.1227600074083862 H
   0.3800270770069520    0.6227096664312783    0.0425847456395135 H
   0.3123209620386156    0.6227096664312783    0.0701140023493533 H
   0.3123209623400370    0.6227096664312783    0.1754060119579724 H
   0.3800270774659905    0.6227096664312783    0.2029352689738477 H
   0.4250290241663005    0.6227096664312783    0.3727600074083862 H
   0.3800270770069520    0.6227096664312783    0.2925847456395135 H
   0.3123209620386155    0.6227096664312783    0.3201140023493533 H
   0.3123209623400370    0.6227096664312783    0.4254060119579723 H
   0.3800270774659905    0.6227096664312783    0.4529352689738477 H
   0.4250290241663006    0.6227096664312783    0.6227600074083862 H
   0.3800270770069520    0.6227096664312783    0.5425847456395134 H
   0.3123209620386155    0.6227096664312783    0.5701140023493533 H
   0.3123209623400370    0.6227096664312783    0.6754060119579723 H
   0.3800270774659905    0.6227096664312783    0.7029352689738476 H
   0.4250290241663006    0.6227096664312783    0.8727600074083863 H
   0.3800270770069520    0.6227096664312783    0.7925847456395135 H
   0.3123209620386156    0.6227096664312783    0.8201140023493534 H
   0.3123209623400370    0.6227096664312783    0.9254060119579723 H
   0.3800270774659905    0.6227096664312783    0.9529352689738477 H
   0.4250290241663005    0.8727096664312785    0.1227600074083862 H
   0.3800270770069520    0.8727096664312785    0.0425847456395135 H
   0.3123209620386156    0.8727096664312785    0.0701140023493533 H
   0.3123209623400370    0.8727096664312785    0.1754060119579724 H
   0.3800270774659905    0.8727096664312785    0.2029352689738477 H
   0.4250290241663005    0.8727096664312785    0.3727600074083862 H
   0.3800270770069520    0.8727096664312785    0.2925847456395135 H
   0.3123209620386155    0.8727096664312785    0.3201140023493533 H
   0.3123209623400370    0.8727096664312785    0.4254060119579723 H
   0.3800270774659905    0.8727096664312785    0.4529352689738477 H
   0.4250290241663006    0.8727096664312785    0.6227600074083862 H
   0.3800270770069520    0.8727096664312785    0.5425847456395134 H
   0.3123209620386155    0.8727096664312785    0.5701140023493533 H
   0.3123209623400370    0.8727096664312785    0.6754060119579723 H
   0.3800270774659905    0.8727096664312785    0.7029352689738476 H
   0.4250290241663006    0.8727096664312785    0.8727600074083863 H
   0.3800270770069520    0.8727096664312785    0.7925847456395135 H
   0.3123209620386156    0.8727096664312785    0.8201140023493534 H
   0.3123209623400370    0.8727096664312785    0.9254060119579723 H
   0.3800270774659905    0.8727096664312785    0.9529352689738477 H
   0.6750290241663004    0.1227096664312783    0.1227600074083862 H
   0.6300270770069520    0.1227096664312783    0.0425847456395135 H
   0.5623209620386156    0.1227096664312783    0.0701140023493533 H
   0.5623209623400370    0.1227096664312783    0.1754060119579723 H
   0.6300270774659905    0.1227096664312783    0.2029352689738477 H
   0.6750290241663006    0.1227096664312783    0.3727600074083862 H
   0.6300270770069520    0.1227096664312783    0.2925847456395134 H
   0.5623209620386157    0.1227096664312783    0.3201140023493533 H
   0.5623209623400370    0.1227096664312783    0.4254060119579723 H
   0.6300270774659905    0.1227096664312783    0.4529352689738477 H
   0.6750290241663006    0.1227096664312783    0.6227600074083863 H
   0.6300270770069520    0.1227096664312783    0.5425847456395134 H
   0.5623209620386156    0.1227096664312783    0.5701140023493534 H
   0.5623209623400370    0.1227096664312783    0.6754060119579723 H
   0.6300270774659904    0.1227096664312783    0.7029352689738476 H
   0.6750290241663005    0.1227096664312783    0.8727600074083861 H
   0.6300270770069520    0.1227096664312783    0.7925847456395135 H
   0.5623209620386156    0.1227096664312783    0.8201140023493533 H
   0.5623209623400370    0.1227096664312783    0.9254060119579722 H
   0.6300270774659906    0.1227096664312783    0.9529352689738476 H
   0.6750290241663004    0.3727096664312783    0.1227600074083862 H
   0.6300270770069520    0.3727096664312783    0.0425847456395135 H
   0.5623209620386156    0.3727096664312783    0.0701140023493533 H
   0.5623209623400370    0.3727096664312783    0.1754060119579723 H
   0.6300270774659905    0.3727096664312783    0.2029352689738477 H
   0.6750290241663006    0.3727096664312783    0.3727600074083862 H
   0.6300270770069520    0.3727096664312783    0.2925847456395134 H
   0.5623209620386157    0.3727096664312783    0.3201140023493533 H
   0.5623209623400370    0.3727096664312783    0.4254060119579723 H
   0.6300270774659905    0.3727096664312783    0.4529352689738477 H
   0.6750290241663006    0.3727096664312783    0.6227600074083863 H
   0.6300270770069520    0.3727096664312783    0.5425847456395134 H
   0.5623209620386156    0.3727096664312783    0.5701140023493534 H
   0.5623209623400370    0.3727096664312783    0.6754060119579723 H
   0.6300270774659904    0.3727096664312783    0.7029352689738476 H
   0.6750290241663005    0.3727096664312783    0.8727600074083861 H
   0.6300270770069520    0.3727096664312783    0.7925847456395135 H
   0.5623209620386156    0.3727096664312783    0.8201140023493533 H
   0.5623209623400370    0.3727096664312783    0.9254060119579722 H
   0.6300270774659906    0.3727096664312783    0.9529352689738476 H
   0.6750290241663004    0.6227096664312783    0.1227600074083862 H
   0.6300270770069520    0.6227096664312783    0.0425847456395135 H
   0.5623209620386156    0.6227096664312783    0.0701140023493533 H
   0.5623209623400370    0.6227096664312783    0.1754060119579723 H
   0.6300270774659905    0.6227096664312783    0.2029352689738477 H
   0.6750290241663006    0.6227096664312783    0.3727600074083862 H
   0.6300270770069520    0.6227096664312783    0.2925847456395134 H
   0.5623209620386157    0.6227096664312783    0.3201140023493533 H
   0.5623209623400370    0.6227096664312783    0.4254060119579723 H
   0.6300270774659905    0.6227096664312783    0.4529352689738477 H
   0.6750290241663006    0.6227096664312783    0.6227600074083863 H
   0.6300270770069520    0.6227096664312783    0.5425847456395134 H
   0.5623209620386156    0.6227096664312783    0.5701140023493534 H
   0.5623209623400370    0.6227096664312783    0.6754060119579723 H
   0.6300270774659904    0.6227096664312783    0.7029352689738476 H
   0.6750290241663005    0.6227096664312783    0.8727600074083861 H
   0.6300270770069520    0.6227096664312783    0.7925847456395135 H
   0.5623209620386156    0.6227096664312783    0.8201140023493533 H
   0.5623209623400370    0.6227096664312783    0.9254060119579722 H
   0.6300270774659906    0.6227096664312783    0.9529352689738476 H
   0.6750290241663004    0.8727096664312785    0.1227600074083862 H
   0.6300270770069520    0.8727096664312785    0.0425847456395135 H
   0.5623209620386156    0.8727096664312785    0.0701140023493533 H
   0.5623209623400370    0.8727096664312785    0.1754060119579723 H
   0.6300270774659905    0.8727096664312785    0.2029352689738477 H
   0.6750290241663006    0.8727096664312785    0.3727600074083862 H
   0.6300270770069520    0.8727096664312785    0.2925847456395134 H
   0.5623209620386157    0.8727096664312785    0.3201140023493533 H
   0.5623209623400370    0.8727096664312785    0.4254060119579723 H
   0.6300270774659905    0.8727096664312785    0.4529352689738477 H
   0.6750290241663006    0.8727096664312785    0.6227600074083863 H
   0.6300270770069520    0.8727096664312785    0.5425847456395134 H
   0.5623209620386156    0.8727096664312785    0.5701140023493534 H
   0.5623209623400370    0.8727096664312785    0.6754060119579723 H
   0.6300270774659904    0.8727096664312785    0.7029352689738476 H
   0.6750290241663005    0.8727096664312785    0.8727600074083861 H
   0.6300270770069520    0.8727096664312785    0.7925847456395135 H
   0.5623209620386156    0.8727096664312785    0.8201140023493533 H
   0.5623209623400370    0.8727096664312785    0.9254060119579722 H
   0.6300270774659906    0.8727096664312785    0.9529352689738476 H
   0.9250290241663006    0.1227096664312783    0.1227600074083862 H
   0.8800270770069519    0.1227096664312783    0.0425847456395135 H
   0.8123209620386156    0.1227096664312783    0.0701140023493533 H
   0.8123209623400369    0.1227096664312783    0.1754060119579723 H
   0.8800270774659904    0.1227096664312783    0.2029352689738477 H
   0.9250290241663004    0.1227096664312783    0.3727600074083863 H
   0.8800270770069519    0.1227096664312783    0.2925847456395135 H
   0.8123209620386155    0.1227096664312783    0.3201140023493533 H
   0.8123209623400368    0.1227096664312783    0.4254060119579723 H
   0.8800270774659904    0.1227096664312783    0.4529352689738476 H
   0.9250290241663005    0.1227096664312783    0.6227600074083861 H
   0.8800270770069520    0.1227096664312783    0.5425847456395134 H
   0.8123209620386157    0.1227096664312783    0.5701140023493533 H
   0.8123209623400370    0.1227096664312783    0.6754060119579723 H
   0.8800270774659906    0.1227096664312783    0.7029352689738477 H
   0.9250290241663006    0.1227096664312783    0.8727600074083862 H
   0.8800270770069520    0.1227096664312783    0.7925847456395135 H
   0.8123209620386156    0.1227096664312783    0.8201140023493533 H
   0.8123209623400370    0.1227096664312783    0.9254060119579723 H
   0.8800270774659905    0.1227096664312783    0.9529352689738477 H
   0.9250290241663006    0.3727096664312783    0.1227600074083862 H
   0.8800270770069519    0.3727096664312783    0.0425847456395135 H
   0.8123209620386156    0.3727096664312783    0.0701140023493533 H
   0.8123209623400369    0.3727096664312783    0.1754060119579723 H
   0.8800270774659904    0.3727096664312783    0.2029352689738477 H
   0.9250290241663004    0.3727096664312783    0.3727600074083863 H
   0.8800270770069519    0.3727096664312783    0.2925847456395135 H
   0.8123209620386155    0.3727096664312783    0.3201140023493533 H
   0.8123209623400368    0.3727096664312783    0.4254060119579723 H
   0.8800270774659904    0.3727096664312783    0.4529352689738476 H
   0.9250290241663005    0.3727096664312783    0.6227600074083861 H
   0.8800270770069520    0.3727096664312783    0.5425847456395134 H
   0.8123209620386157    0.3727096664312783    0.5701140023493533 H
   0.8123209623400370    0.3727096664312783    0.6754060119579723 H
   0.8800270774659906    0.3727096664312783    0.7029352689738477 H
   0.9250290241663006    0.3727096664312783    0.8727600074083862 H
   0.8800270770069520    0.3727096664312783    0.7925847456395135 H
   0.8123209620386156    0.3727096664312783    0.8201140023493533 H
   0.8123209623400370    0.3727096664312783    0.9254060119579723 H
   0.8800270774659905    0.3727096664312783    0.9529352689738477 H
   0.9250290241663006    0.6227096664312783    0.1227600074083862 H
   0.8800270770069519    0.6227096664312783    0.0425847456395135 H
   0.8123209620386156    0.6227096664312783    0.0701140023493533 H
   0.8123209623400369    0.6227096664312783    0.1754060119579723 H
   0.8800270774659904    0.6227096664312783    0.2029352689738477 H
   0.9250290241663004    0.6227096664312783    0.3727600074083863 H
   0.8800270770069519    0.6227096664312783    0.2925847456395135 H
   0.8123209620386155    0.6227096664312783    0.3201140023493533 H
   0.8123209623400368    0.6227096664312783    0.4254060119579723 H
   0.8800270774659904    0.6227096664312783    0.4529352689738476 H
   0.9250290241663005    0.6227096664312783    0.6227600074083861 H
   0.8800270770069520    0.6227096664312783    0.5425847456395134 H
   0.8123209620386157    0.6227096664312783    0.5701140023493533 H
   0.8123209623400370    0.6227096664312783    0.6754060119579723 H
   0.8800270774659906    0.6227096664312783    0.7029352689738477 H
   0.9250290241663006    0.6227096664312783    0.8727600074083862 H
   0.8800270770069520    0.6227096664312783    0.7925847456395135 H
   0.8123209620386156    0.6227096664312783    0.8201140023493533 H
   0.8123209623400370    0.6227096664312783    0.9254060119579723 H
   0.8800270774659905    0.6227096664312783    0.9529352689738477 H
   0.9250290241663006    0.8727096664312785    0.1227600074083862 H
   0.8800270770069519    0.8727096664312785    0.0425847456395135 H
   0.8123209620386156    0.8727096664312785    0.0701140023493533 H
   0.8123209623400369    0.8727096664312785    0.1754060119579723 H
   0.8800270774659904    0.8727096664312785    0.2029352689738477 H
   0.9250290241663004    0.8727096664312785    0.3727600074083863 H
   0.8800270770069519    0.8727096664312785    0.2925847456395135 H
   0.8123209620386155    0.8727096664312785    0.3201140023493533 H
   0.8123209623400368    0.8727096664312785    0.4254060119579723 H
   0.8800270774659904    0.8727096664312785    0.4529352689738476 H
   0.9250290241663005    0.8727096664312785    0.6227600074083861 H
   0.8800270770069520    0.8727096664312785    0.5425847456395134 H
   0.8123209620386157    0.8727096664312785    0.5701140023493533 H
   0.8123209623400370    0.8727096664312785    0.6754060119579723 H
   0.8800270774659906    0.8727096664312785    0.7029352689738477 H
   0.9250290241663006    0.8727096664312785    0.8727600074083862 H
   0.8800270770069520    0.8727096664312785    0.7925847456395135 H
   0.8123209620386156    0.8727096664312785    0.8201140023493533 H
   0.8123209623400370    0.8727096664312785    0.9254060119579723 H
   0.8800270774659905    0.8727096664312785    0.9529352689738477 H
   0.2334465523265154    0.0000000000000000    0.0000000005275959 Pb
   0.2334465523265154    0.0000000000000000    0.2500000005275958 Pb
   0.2334465523265154    0.0000000000000000    0.5000000005275957 Pb
   0.2334465523265154    0.0000000000000000    0.7500000005275959 Pb
   0.2334465523265154    0.2500000000000000    0.0000000005275959 Pb
   0.2334465523265154    0.2500000000000000    0.2500000005275958 Pb
   0.2334465523265154    0.2500000000000000    0.5000000005275957 Pb
   0.2334465523265154    0.2500000000000000    0.7500000005275959 Pb
   0.2334465523265154    0.5000000000000000    0.0000000005275959 Pb
   0.2334465523265154    0.5000000000000000    0.2500000005275958 Pb
   0.2334465523265154    0.5000000000000000    0.5000000005275957 Pb
   0.2334465523265154    0.5000000000000000    0.7500000005275959 Pb
   0.2334465523265154    0.7500000000000000    0.0000000005275959 Pb
   0.2334465523265154    0.7500000000000000    0.2500000005275958 Pb
   0.2334465523265154    0.7500000000000000    0.5000000005275957 Pb
   0.2334465523265154    0.7500000000000000    0.7500000005275959 Pb
   0.4834465523265155    0.0000000000000000    0.0000000005275959 Pb
   0.4834465523265154    0.0000000000000000    0.2500000005275959 Pb
   0.4834465523265154    0.0000000000000000    0.5000000005275957 Pb
   0.4834465523265155    0.0000000000000000    0.7500000005275959 Pb
   0.4834465523265155    0.2500000000000000    0.0000000005275959 Pb
   0.4834465523265154    0.2500000000000000    0.2500000005275959 Pb
   0.4834465523265154    0.2500000000000000    0.5000000005275957 Pb
   0.4834465523265155    0.2500000000000000    0.7500000005275959 Pb
   0.4834465523265155    0.5000000000000000    0.0000000005275959 Pb
   0.4834465523265154    0.5000000000000000    0.2500000005275959 Pb
   0.4834465523265154    0.5000000000000000    0.5000000005275957 Pb
   0.4834465523265155    0.5000000000000000    0.7500000005275959 Pb
   0.4834465523265155    0.7500000000000000    0.0000000005275959 Pb
   0.4834465523265154    0.7500000000000000    0.2500000005275959 Pb
   0.4834465523265154    0.7500000000000000    0.5000000005275957 Pb
   0.4834465523265155    0.7500000000000000    0.7500000005275959 Pb
   0.7334465523265155    0.0000000000000000    0.0000000005275959 Pb
   0.7334465523265156    0.0000000000000000    0.2500000005275958 Pb
   0.7334465523265155    0.0000000000000000    0.5000000005275957 Pb
   0.7334465523265156    0.0000000000000000    0.7500000005275959 Pb
   0.7334465523265155    0.2500000000000000    0.0000000005275959 Pb
   0.7334465523265156    0.2500000000000000    0.2500000005275958 Pb
   0.7334465523265155    0.2500000000000000    0.5000000005275957 Pb
   0.7334465523265156    0.2500000000000000    0.7500000005275959 Pb
   0.7334465523265155    0.5000000000000000    0.0000000005275959 Pb
   0.7334465523265156    0.5000000000000000    0.2500000005275958 Pb
   0.7334465523265155    0.5000000000000000    0.5000000005275957 Pb
   0.7334465523265156    0.5000000000000000    0.7500000005275959 Pb
   0.7334465523265155    0.7500000000000000    0.0000000005275959 Pb
   0.7334465523265156    0.7500000000000000    0.2500000005275958 Pb
   0.7334465523265155    0.7500000000000000    0.5000000005275957 Pb
   0.7334465523265156    0.7500000000000000    0.7500000005275959 Pb
   0.9834465523265152    0.0000000000000000    0.0000000005275959 Pb
   0.9834465523265155    0.0000000000000000    0.2500000005275959 Pb
   0.9834465523265156    0.0000000000000000    0.5000000005275957 Pb
   0.9834465523265153    0.0000000000000000    0.7500000005275959 Pb
   0.9834465523265152    0.2500000000000000    0.0000000005275959 Pb
   0.9834465523265155    0.2500000000000000    0.2500000005275959 Pb
   0.9834465523265156    0.2500000000000000    0.5000000005275957 Pb
   0.9834465523265153    0.2500000000000000    0.7500000005275959 Pb
   0.9834465523265152    0.5000000000000000    0.0000000005275959 Pb
   0.9834465523265155    0.5000000000000000    0.2500000005275959 Pb
   0.9834465523265156    0.5000000000000000    0.5000000005275957 Pb
   0.9834465523265153    0.5000000000000000    0.7500000005275959 Pb
   0.9834465523265152    0.7500000000000000    0.0000000005275959 Pb
   0.9834465523265155    0.7500000000000000    0.2500000005275959 Pb
   0.9834465523265156    0.7500000000000000    0.5000000005275957 Pb
   0.9834465523265153    0.7500000000000000    0.7500000005275959 Pb
   0.1293221750445259    0.1227096664312783    0.1227597585933127 C
   0.1293221750445259    0.1227096664312783    0.3727597585933127 C
   0.1293221750445259    0.1227096664312783    0.6227597585933127 C
   0.1293221750445259    0.1227096664312783    0.8727597585933128 C
   0.1293221750445259    0.3727096664312783    0.1227597585933127 C
   0.1293221750445259    0.3727096664312783    0.3727597585933127 C
   0.1293221750445259    0.3727096664312783    0.6227597585933127 C
   0.1293221750445259    0.3727096664312783    0.8727597585933128 C
   0.1293221750445259    0.6227096664312783    0.1227597585933127 C
   0.1293221750445259    0.6227096664312783    0.3727597585933127 C
   0.1293221750445259    0.6227096664312783    0.6227597585933127 C
   0.1293221750445259    0.6227096664312783    0.8727597585933128 C
   0.1293221750445259    0.8727096664312785    0.1227597585933127 C
   0.1293221750445259    0.8727096664312785    0.3727597585933127 C
   0.1293221750445259    0.8727096664312785    0.6227597585933127 C
   0.1293221750445259    0.8727096664312785    0.8727597585933128 C
   0.3793221750445259    0.1227096664312783    0.1227597585933127 C
   0.3793221750445259    0.1227096664312783    0.3727597585933127 C
   0.3793221750445260    0.1227096664312783    0.6227597585933127 C
   0.3793221750445259    0.1227096664312783    0.8727597585933128 C
   0.3793221750445259    0.3727096664312783    0.1227597585933127 C
   0.3793221750445259    0.3727096664312783    0.3727597585933127 C
   0.3793221750445260    0.3727096664312783    0.6227597585933127 C
   0.3793221750445259    0.3727096664312783    0.8727597585933128 C
   0.3793221750445259    0.6227096664312783    0.1227597585933127 C
   0.3793221750445259    0.6227096664312783    0.3727597585933127 C
   0.3793221750445260    0.6227096664312783    0.6227597585933127 C
   0.3793221750445259    0.6227096664312783    0.8727597585933128 C
   0.3793221750445259    0.8727096664312785    0.1227597585933127 C
   0.3793221750445259    0.8727096664312785    0.3727597585933127 C
   0.3793221750445260    0.8727096664312785    0.6227597585933127 C
   0.3793221750445259    0.8727096664312785    0.8727597585933128 C
   0.6293221750445259    0.1227096664312783    0.1227597585933127 C
   0.6293221750445259    0.1227096664312783    0.3727597585933127 C
   0.6293221750445259    0.1227096664312783    0.6227597585933128 C
   0.6293221750445260    0.1227096664312783    0.8727597585933128 C
   0.6293221750445259    0.3727096664312783    0.1227597585933127 C
   0.6293221750445259    0.3727096664312783    0.3727597585933127 C
   0.6293221750445259    0.3727096664312783    0.6227597585933128 C
   0.6293221750445260    0.3727096664312783    0.8727597585933128 C
   0.6293221750445259    0.6227096664312783    0.1227597585933127 C
   0.6293221750445259    0.6227096664312783    0.3727597585933127 C
   0.6293221750445259    0.6227096664312783    0.6227597585933128 C
   0.6293221750445260    0.6227096664312783    0.8727597585933128 C
   0.6293221750445259    0.8727096664312785    0.1227597585933127 C
   0.6293221750445259    0.8727096664312785    0.3727597585933127 C
   0.6293221750445259    0.8727096664312785    0.6227597585933128 C
   0.6293221750445260    0.8727096664312785    0.8727597585933128 C
   0.8793221750445259    0.1227096664312783    0.1227597585933127 C
   0.8793221750445259    0.1227096664312783    0.3727597585933128 C
   0.8793221750445259    0.1227096664312783    0.6227597585933127 C
   0.8793221750445259    0.1227096664312783    0.8727597585933128 C