H320 Pb64 C64 I48 Br144 N128
1.0
  23.8502573213063869    0.0000000000000000    0.0000001155321658
   0.0000000000000000   24.4426618934457807    0.0000000000000000
  -0.0000031278263713    0.0000000000000000   24.6530101186130750
H Pb C I Br N
320 64 64 48 144 128
direct
   0.1759650494979340    0.1232743451731026    0.1233124453366535 H
   0.1307224396446391    0.1232743451731026    0.0427763831638341 H
   0.0626542438823411    0.1232743451731026    0.0704295256015830 H
   0.0626542441106389    0.1232743451731026    0.1761953646858670 H
   0.1307224399923167    0.1232743451731026    0.2038485073554084 H
   0.1759650494979340    0.1232743451731026    0.3733124453366535 H
   0.1307224396446391    0.1232743451731026    0.2927763831638341 H
   0.0626542438823411    0.1232743451731026    0.3204295256015830 H
   0.0626542441106389    0.1232743451731026    0.4261953646858671 H
   0.1307224399923167    0.1232743451731026    0.4538485073554083 H
   0.1759650494979340    0.1232743451731026    0.6233124453366535 H
   0.1307224396446391    0.1232743451731026    0.5427763831638341 H
   0.0626542438823411    0.1232743451731026    0.5704295256015831 H
   0.0626542441106389    0.1232743451731026    0.6761953646858669 H
   0.1307224399923167    0.1232743451731026    0.7038485073554085 H
   0.1759650494979340    0.1232743451731026    0.8733124453366534 H
   0.1307224396446391    0.1232743451731026    0.7927763831638340 H
   0.0626542438823411    0.1232743451731026    0.8204295256015830 H
   0.0626542441106389    0.1232743451731026    0.9261953646858669 H
   0.1307224399923167    0.1232743451731026    0.9538485073554084 H
   0.1759650494979340    0.3732743451731026    0.1233124453366535 H
   0.1307224396446391    0.3732743451731026    0.0427763831638341 H
   0.0626542438823411    0.3732743451731026    0.0704295256015830 H
   0.0626542441106389    0.3732743451731026    0.1761953646858670 H
   0.1307224399923167    0.3732743451731026    0.2038485073554084 H
   0.1759650494979340    0.3732743451731026    0.3733124453366535 H
   0.1307224396446391    0.3732743451731026    0.2927763831638341 H
   0.0626542438823411    0.3732743451731026    0.3204295256015830 H
   0.0626542441106389    0.3732743451731026    0.4261953646858671 H
   0.1307224399923167    0.3732743451731026    0.4538485073554083 H
   0.1759650494979340    0.3732743451731026    0.6233124453366535 H
   0.1307224396446391    0.3732743451731026    0.5427763831638341 H
   0.0626542438823411    0.3732743451731026    0.5704295256015831 H
   0.0626542441106389    0.3732743451731026    0.6761953646858669 H
   0.1307224399923167    0.3732743451731026    0.7038485073554085 H
   0.1759650494979340    0.3732743451731026    0.8733124453366534 H
   0.1307224396446391    0.3732743451731026    0.7927763831638340 H
   0.0626542438823411    0.3732743451731026    0.8204295256015830 H
   0.0626542441106389    0.3732743451731026    0.9261953646858669 H
   0.1307224399923167    0.3732743451731026    0.9538485073554084 H
   0.1759650494979340    0.6232743451731027    0.1233124453366535 H
   0.1307224396446391    0.6232743451731027    0.0427763831638341 H
   0.0626542438823411    0.6232743451731027    0.0704295256015830 H
   0.0626542441106389    0.6232743451731027    0.1761953646858670 H
   0.1307224399923167    0.6232743451731027    0.2038485073554084 H
   0.1759650494979340    0.6232743451731027    0.3733124453366535 H
   0.1307224396446391    0.6232743451731027    0.2927763831638341 H
   0.0626542438823411    0.6232743451731027    0.3204295256015830 H
   0.0626542441106389    0.6232743451731027    0.4261953646858671 H
   0.1307224399923167    0.6232743451731027    0.4538485073554083 H
   0.1759650494979340    0.6232743451731027    0.6233124453366535 H
   0.1307224396446391    0.6232743451731027    0.5427763831638341 H
   0.0626542438823411    0.6232743451731027    0.5704295256015831 H
   0.0626542441106389    0.6232743451731027    0.6761953646858669 H
   0.1307224399923167    0.6232743451731027    0.7038485073554085 H
   0.1759650494979340    0.6232743451731027    0.8733124453366534 H
   0.1307224396446391    0.6232743451731027    0.7927763831638340 H
   0.0626542438823411    0.6232743451731027    0.8204295256015830 H
   0.0626542441106389    0.6232743451731027    0.9261953646858669 H
   0.1307224399923167    0.6232743451731027    0.9538485073554084 H
   0.1759650494979340    0.8732743451731027    0.1233124453366535 H
   0.1307224396446391    0.8732743451731027    0.0427763831638341 H
   0.0626542438823411    0.8732743451731027    0.0704295256015830 H
   0.0626542441106389    0.8732743451731027    0.1761953646858670 H
   0.1307224399923167    0.8732743451731027    0.2038485073554084 H
   0.1759650494979340    0.8732743451731027    0.3733124453366535 H
   0.1307224396446391    0.8732743451731027    0.2927763831638341 H
   0.0626542438823411    0.8732743451731027    0.3204295256015830 H
   0.0626542441106389    0.8732743451731027    0.4261953646858671 H
   0.1307224399923167    0.8732743451731027    0.4538485073554083 H
   0.1759650494979340    0.8732743451731027    0.6233124453366535 H
   0.1307224396446391    0.8732743451731027    0.5427763831638341 H
   0.0626542438823411    0.8732743451731027    0.5704295256015831 H
   0.0626542441106389    0.8732743451731027    0.6761953646858669 H
   0.1307224399923167    0.8732743451731027    0.7038485073554085 H
   0.1759650494979340    0.8732743451731027    0.8733124453366534 H
   0.1307224396446391    0.8732743451731027    0.7927763831638340 H
   0.0626542438823411    0.8732743451731027    0.8204295256015830 H
   0.0626542441106389    0.8732743451731027    0.9261953646858669 H
   0.1307224399923167    0.8732743451731027    0.9538485073554084 H
   0.4259650494979340    0.1232743451731026    0.1233124453366535 H
   0.3807224396446391    0.1232743451731026    0.0427763831638341 H
   0.3126542438823411    0.1232743451731026    0.0704295256015830 H
   0.3126542441106389    0.1232743451731026    0.1761953646858669 H
   0.3807224399923168    0.1232743451731026    0.2038485073554084 H
   0.4259650494979341    0.1232743451731026    0.3733124453366535 H
   0.3807224396446391    0.1232743451731026    0.2927763831638341 H
   0.3126542438823411    0.1232743451731026    0.3204295256015831 H
   0.3126542441106389    0.1232743451731026    0.4261953646858669 H
   0.3807224399923168    0.1232743451731026    0.4538485073554084 H
   0.4259650494979340    0.1232743451731026    0.6233124453366535 H
   0.3807224396446391    0.1232743451731026    0.5427763831638343 H
   0.3126542438823411    0.1232743451731026    0.5704295256015830 H
   0.3126542441106390    0.1232743451731026    0.6761953646858671 H
   0.3807224399923166    0.1232743451731026    0.7038485073554084 H
   0.4259650494979340    0.1232743451731026    0.8733124453366534 H
   0.3807224396446392    0.1232743451731026    0.7927763831638340 H
   0.3126542438823411    0.1232743451731026    0.8204295256015830 H
   0.3126542441106389    0.1232743451731026    0.9261953646858668 H
   0.3807224399923167    0.1232743451731026    0.9538485073554083 H
   0.4259650494979340    0.3732743451731026    0.1233124453366535 H
   0.3807224396446391    0.3732743451731026    0.0427763831638341 H
   0.3126542438823411    0.3732743451731026    0.0704295256015830 H
   0.3126542441106389    0.3732743451731026    0.1761953646858669 H
   0.3807224399923168    0.3732743451731026    0.2038485073554084 H
   0.4259650494979341    0.3732743451731026    0.3733124453366535 H
   0.3807224396446391    0.3732743451731026    0.2927763831638341 H
   0.3126542438823411    0.3732743451731026    0.3204295256015831 H
   0.3126542441106389    0.3732743451731026    0.4261953646858669 H
   0.3807224399923168    0.3732743451731026    0.4538485073554084 H
   0.4259650494979340    0.3732743451731026    0.6233124453366535 H
   0.3807224396446391    0.3732743451731026    0.5427763831638343 H
   0.3126542438823411    0.3732743451731026    0.5704295256015830 H
   0.3126542441106390    0.3732743451731026    0.6761953646858671 H
   0.3807224399923166    0.3732743451731026    0.7038485073554084 H
   0.4259650494979340    0.3732743451731026    0.8733124453366534 H
   0.3807224396446392    0.3732743451731026    0.7927763831638340 H
   0.3126542438823411    0.3732743451731026    0.8204295256015830 H
   0.3126542441106389    0.3732743451731026    0.9261953646858668 H
   0.3807224399923167    0.3732743451731026    0.9538485073554083 H
   0.4259650494979340    0.6232743451731027    0.1233124453366535 H
   0.3807224396446391    0.6232743451731027    0.0427763831638341 H
   0.3126542438823411    0.6232743451731027    0.0704295256015830 H
   0.3126542441106389    0.6232743451731027    0.1761953646858669 H
   0.3807224399923168    0.6232743451731027    0.2038485073554084 H
   0.4259650494979341    0.6232743451731027    0.3733124453366535 H
   0.3807224396446391    0.6232743451731027    0.2927763831638341 H
   0.3126542438823411    0.6232743451731027    0.3204295256015831 H
   0.3126542441106389    0.6232743451731027    0.4261953646858669 H
   0.3807224399923168    0.6232743451731027    0.4538485073554084 H
   0.4259650494979340    0.6232743451731027    0.6233124453366535 H
   0.3807224396446391    0.6232743451731027    0.5427763831638343 H
   0.3126542438823411    0.6232743451731027    0.5704295256015830 H
   0.3126542441106390    0.6232743451731027    0.6761953646858671 H
   0.3807224399923166    0.6232743451731027    0.7038485073554084 H
   0.4259650494979340    0.6232743451731027    0.8733124453366534 H
   0.3807224396446392    0.6232743451731027    0.7927763831638340 H
   0.3126542438823411    0.6232743451731027    0.8204295256015830 H
   0.3126542441106389    0.6232743451731027    0.9261953646858668 H
   0.3807224399923167    0.6232743451731027    0.9538485073554083 H
   0.4259650494979340    0.8732743451731027    0.1233124453366535 H
   0.3807224396446391    0.8732743451731027    0.0427763831638341 H
   0.3126542438823411    0.8732743451731027    0.0704295256015830 H
   0.3126542441106389    0.8732743451731027    0.1761953646858669 H
   0.3807224399923168    0.8732743451731027    0.2038485073554084 H
   0.4259650494979341    0.8732743451731027    0.3733124453366535 H
   0.3807224396446391    0.8732743451731027    0.2927763831638341 H
   0.3126542438823411    0.8732743451731027    0.3204295256015831 H
   0.3126542441106389    0.8732743451731027    0.4261953646858669 H
   0.3807224399923168    0.8732743451731027    0.4538485073554084 H
   0.4259650494979340    0.8732743451731027    0.6233124453366535 H
   0.3807224396446391    0.8732743451731027    0.5427763831638343 H
   0.3126542438823411    0.8732743451731027    0.5704295256015830 H
   0.3126542441106390    0.8732743451731027    0.6761953646858671 H
   0.3807224399923166    0.8732743451731027    0.7038485073554084 H
   0.4259650494979340    0.8732743451731027    0.8733124453366534 H
   0.3807224396446392    0.8732743451731027    0.7927763831638340 H
   0.3126542438823411    0.8732743451731027    0.8204295256015830 H
   0.3126542441106389    0.8732743451731027    0.9261953646858668 H
   0.3807224399923167    0.8732743451731027    0.9538485073554083 H
   0.6759650494979341    0.1232743451731026    0.1233124453366535 H
   0.6307224396446391    0.1232743451731026    0.0427763831638341 H
   0.5626542438823412    0.1232743451731026    0.0704295256015830 H
   0.5626542441106389    0.1232743451731026    0.1761953646858669 H
   0.6307224399923168    0.1232743451731026    0.2038485073554083 H
   0.6759650494979340    0.1232743451731026    0.3733124453366535 H
   0.6307224396446391    0.1232743451731026    0.2927763831638341 H
   0.5626542438823411    0.1232743451731026    0.3204295256015830 H
   0.5626542441106389    0.1232743451731026    0.4261953646858669 H
   0.6307224399923167    0.1232743451731026    0.4538485073554084 H
   0.6759650494979341    0.1232743451731026    0.6233124453366535 H
   0.6307224396446391    0.1232743451731026    0.5427763831638341 H
   0.5626542438823411    0.1232743451731026    0.5704295256015831 H
   0.5626542441106389    0.1232743451731026    0.6761953646858671 H
   0.6307224399923167    0.1232743451731026    0.7038485073554084 H
   0.6759650494979340    0.1232743451731026    0.8733124453366534 H
   0.6307224396446390    0.1232743451731026    0.7927763831638341 H
   0.5626542438823411    0.1232743451731026    0.8204295256015830 H
   0.5626542441106389    0.1232743451731026    0.9261953646858669 H
   0.6307224399923167    0.1232743451731026    0.9538485073554085 H
   0.6759650494979341    0.3732743451731026    0.1233124453366535 H
   0.6307224396446391    0.3732743451731026    0.0427763831638341 H
   0.5626542438823412    0.3732743451731026    0.0704295256015830 H
   0.5626542441106389    0.3732743451731026    0.1761953646858669 H
   0.6307224399923168    0.3732743451731026    0.2038485073554083 H
   0.6759650494979340    0.3732743451731026    0.3733124453366535 H
   0.6307224396446391    0.3732743451731026    0.2927763831638341 H
   0.5626542438823411    0.3732743451731026    0.3204295256015830 H
   0.5626542441106389    0.3732743451731026    0.4261953646858669 H
   0.6307224399923167    0.3732743451731026    0.4538485073554084 H
   0.6759650494979341    0.3732743451731026    0.6233124453366535 H
   0.6307224396446391    0.3732743451731026    0.5427763831638341 H
   0.5626542438823411    0.3732743451731026    0.5704295256015831 H
   0.5626542441106389    0.3732743451731026    0.6761953646858671 H
   0.6307224399923167    0.3732743451731026    0.7038485073554084 H
   0.6759650494979340    0.3732743451731026    0.8733124453366534 H
   0.6307224396446390    0.3732743451731026    0.7927763831638341 H
   0.5626542438823411    0.3732743451731026    0.8204295256015830 H
   0.5626542441106389    0.3732743451731026    0.9261953646858669 H
   0.6307224399923167    0.3732743451731026    0.9538485073554085 H
   0.6759650494979341    0.6232743451731027    0.1233124453366535 H
   0.6307224396446391    0.6232743451731027    0.0427763831638341 H
   0.5626542438823412    0.6232743451731027    0.0704295256015830 H
   0.5626542441106389    0.6232743451731027    0.1761953646858669 H
   0.6307224399923168    0.6232743451731027    0.2038485073554083 H
   0.6759650494979340    0.6232743451731027    0.3733124453366535 H
   0.6307224396446391    0.6232743451731027    0.2927763831638341 H
   0.5626542438823411    0.6232743451731027    0.3204295256015830 H
   0.5626542441106389    0.6232743451731027    0.4261953646858669 H
   0.6307224399923167    0.6232743451731027    0.4538485073554084 H
   0.6759650494979341    0.6232743451731027    0.6233124453366535 H
   0.6307224396446391    0.6232743451731027    0.5427763831638341 H
   0.5626542438823411    0.6232743451731027    0.5704295256015831 H
   0.5626542441106389    0.6232743451731027    0.6761953646858671 H
   0.6307224399923167    0.6232743451731027    0.7038485073554084 H
   0.6759650494979340    0.6232743451731027    0.8733124453366534 H
   0.6307224396446390    0.6232743451731027    0.7927763831638341 H
   0.5626542438823411    0.6232743451731027    0.8204295256015830 H
   0.5626542441106389    0.6232743451731027    0.9261953646858669 H
   0.6307224399923167    0.6232743451731027    0.9538485073554085 H
   0.6759650494979341    0.8732743451731027    0.1233124453366535 H
   0.6307224396446391    0.8732743451731027    0.0427763831638341 H
   0.5626542438823412    0.8732743451731027    0.0704295256015830 H
   0.5626542441106389    0.8732743451731027    0.1761953646858669 H
   0.6307224399923168    0.8732743451731027    0.2038485073554083 H
   0.6759650494979340    0.8732743451731027    0.3733124453366535 H
   0.6307224396446391    0.8732743451731027    0.2927763831638341 H
   0.5626542438823411    0.8732743451731027    0.3204295256015830 H
   0.5626542441106389    0.8732743451731027    0.4261953646858669 H
   0.6307224399923167    0.8732743451731027    0.4538485073554084 H
   0.6759650494979341    0.8732743451731027    0.6233124453366535 H
   0.6307224396446391    0.8732743451731027    0.5427763831638341 H
   0.5626542438823411    0.8732743451731027    0.5704295256015831 H
   0.5626542441106389    0.8732743451731027    0.6761953646858671 H
   0.6307224399923167    0.8732743451731027    0.7038485073554084 H
   0.6759650494979340    0.8732743451731027    0.8733124453366534 H
   0.6307224396446390    0.8732743451731027    0.7927763831638341 H
   0.5626542438823411    0.8732743451731027    0.8204295256015830 H
   0.5626542441106389    0.8732743451731027    0.9261953646858669 H
   0.6307224399923167    0.8732743451731027    0.9538485073554085 H
   0.9259650494979339    0.1232743451731026    0.1233124453366535 H
   0.8807224396446391    0.1232743451731026    0.0427763831638341 H
   0.8126542438823411    0.1232743451731026    0.0704295256015830 H
   0.8126542441106389    0.1232743451731026    0.1761953646858669 H
   0.8807224399923167    0.1232743451731026    0.2038485073554084 H
   0.9259650494979340    0.1232743451731026    0.3733124453366535 H
   0.8807224396446391    0.1232743451731026    0.2927763831638341 H
   0.8126542438823411    0.1232743451731026    0.3204295256015831 H
   0.8126542441106388    0.1232743451731026    0.4261953646858670 H
   0.8807224399923168    0.1232743451731026    0.4538485073554084 H
   0.9259650494979339    0.1232743451731026    0.6233124453366536 H
   0.8807224396446390    0.1232743451731026    0.5427763831638341 H
   0.8126542438823411    0.1232743451731026    0.5704295256015831 H
   0.8126542441106389    0.1232743451731026    0.6761953646858671 H
   0.8807224399923167    0.1232743451731026    0.7038485073554084 H
   0.9259650494979341    0.1232743451731026    0.8733124453366534 H
   0.8807224396446393    0.1232743451731026    0.7927763831638341 H
   0.8126542438823412    0.1232743451731026    0.8204295256015830 H
   0.8126542441106389    0.1232743451731026    0.9261953646858669 H
   0.8807224399923168    0.1232743451731026    0.9538485073554083 H
   0.9259650494979339    0.3732743451731026    0.1233124453366535 H
   0.8807224396446391    0.3732743451731026    0.0427763831638341 H
   0.8126542438823411    0.3732743451731026    0.0704295256015830 H
   0.8126542441106389    0.3732743451731026    0.1761953646858669 H
   0.8807224399923167    0.3732743451731026    0.2038485073554084 H
   0.9259650494979340    0.3732743451731026    0.3733124453366535 H
   0.8807224396446391    0.3732743451731026    0.2927763831638341 H
   0.8126542438823411    0.3732743451731026    0.3204295256015831 H
   0.8126542441106388    0.3732743451731026    0.4261953646858670 H
   0.8807224399923168    0.3732743451731026    0.4538485073554084 H
   0.9259650494979339    0.3732743451731026    0.6233124453366536 H
   0.8807224396446390    0.3732743451731026    0.5427763831638341 H
   0.8126542438823411    0.3732743451731026    0.5704295256015831 H
   0.8126542441106389    0.3732743451731026    0.6761953646858671 H
   0.8807224399923167    0.3732743451731026    0.7038485073554084 H
   0.9259650494979341    0.3732743451731026    0.8733124453366534 H
   0.8807224396446393    0.3732743451731026    0.7927763831638341 H
   0.8126542438823412    0.3732743451731026    0.8204295256015830 H
   0.8126542441106389    0.3732743451731026    0.9261953646858669 H
   0.8807224399923168    0.3732743451731026    0.9538485073554083 H
   0.9259650494979339    0.6232743451731027    0.1233124453366535 H
   0.8807224396446391    0.6232743451731027    0.0427763831638341 H
   0.8126542438823411    0.6232743451731027    0.0704295256015830 H
   0.8126542441106389    0.6232743451731027    0.1761953646858669 H
   0.8807224399923167    0.6232743451731027    0.2038485073554084 H
   0.9259650494979340    0.6232743451731027    0.3733124453366535 H
   0.8807224396446391    0.6232743451731027    0.2927763831638341 H
   0.8126542438823411    0.6232743451731027    0.3204295256015831 H
   0.8126542441106388    0.6232743451731027    0.4261953646858670 H
   0.8807224399923168    0.6232743451731027    0.4538485073554084 H
   0.9259650494979339    0.6232743451731027    0.6233124453366536 H
   0.8807224396446390    0.6232743451731027    0.5427763831638341 H
   0.8126542438823411    0.6232743451731027    0.5704295256015831 H
   0.8126542441106389    0.6232743451731027    0.6761953646858671 H
   0.8807224399923167    0.6232743451731027    0.7038485073554084 H
   0.9259650494979341    0.6232743451731027    0.8733124453366534 H
   0.8807224396446393    0.6232743451731027    0.7927763831638341 H
   0.8126542438823412    0.6232743451731027    0.8204295256015830 H
   0.8126542441106389    0.6232743451731027    0.9261953646858669 H
   0.8807224399923168    0.6232743451731027    0.9538485073554083 H
   0.9259650494979339    0.8732743451731027    0.1233124453366535 H
   0.8807224396446391    0.8732743451731027    0.0427763831638341 H
   0.8126542438823411    0.8732743451731027    0.0704295256015830 H
   0.8126542441106389    0.8732743451731027    0.1761953646858669 H
   0.8807224399923167    0.8732743451731027    0.2038485073554084 H
   0.9259650494979340    0.8732743451731027    0.3733124453366535 H
   0.8807224396446391    0.8732743451731027    0.2927763831638341 H
   0.8126542438823411    0.8732743451731027    0.3204295256015831 H
   0.8126542441106388    0.8732743451731027    0.4261953646858670 H
   0.8807224399923168    0.8732743451731027    0.4538485073554084 H
   0.9259650494979339    0.8732743451731027    0.6233124453366536 H
   0.8807224396446390    0.8732743451731027    0.5427763831638341 H
   0.8126542438823411    0.8732743451731027    0.5704295256015831 H
   0.8126542441106389    0.8732743451731027    0.6761953646858671 H
   0.8807224399923167    0.8732743451731027    0.7038485073554084 H
   0.9259650494979341    0.8732743451731027    0.8733124453366534 H
   0.8807224396446393    0.8732743451731027    0.7927763831638341 H
   0.8126542438823412    0.8732743451731027    0.8204295256015830 H
   0.8126542441106389    0.8732743451731027    0.9261953646858669 H
   0.8807224399923168    0.8732743451731027    0.9538485073554083 H
   0.2346949847390374    0.0000000000000000    0.0000000003996032 Pb
   0.2346949847390374    0.0000000000000000    0.2500000003996033 Pb
   0.2346949847390374    0.0000000000000000    0.5000000003996032 Pb
   0.2346949847390374    0.0000000000000000    0.7500000003996032 Pb
   0.2346949847390374    0.2500000000000000    0.0000000003996032 Pb
   0.2346949847390374    0.2500000000000000    0.2500000003996033 Pb
   0.2346949847390374    0.2500000000000000    0.5000000003996032 Pb
   0.2346949847390374    0.2500000000000000    0.7500000003996032 Pb
   0.2346949847390374    0.5000000000000000    0.0000000003996032 Pb
   0.2346949847390374    0.5000000000000000    0.2500000003996033 Pb
   0.2346949847390374    0.5000000000000000    0.5000000003996032 Pb
   0.2346949847390374    0.5000000000000000    0.7500000003996032 Pb
   0.2346949847390374    0.7500000000000001    0.0000000003996032 Pb
   0.2346949847390374    0.7500000000000001    0.2500000003996033 Pb
   0.2346949847390374    0.7500000000000001    0.5000000003996032 Pb
   0.2346949847390374    0.7500000000000001    0.7500000003996032 Pb
   0.4846949847390374    0.0000000000000000    0.0000000003996032 Pb
   0.4846949847390375    0.0000000000000000    0.2500000003996033 Pb
   0.4846949847390375    0.0000000000000000    0.5000000003996032 Pb
   0.4846949847390374    0.0000000000000000    0.7500000003996031 Pb
   0.4846949847390374    0.2500000000000000    0.0000000003996032 Pb
   0.4846949847390375    0.2500000000000000    0.2500000003996033 Pb
   0.4846949847390375    0.2500000000000000    0.5000000003996032 Pb
   0.4846949847390374    0.2500000000000000    0.7500000003996031 Pb
   0.4846949847390374    0.5000000000000000    0.0000000003996032 Pb
   0.4846949847390375    0.5000000000000000    0.2500000003996033 Pb
   0.4846949847390375    0.5000000000000000    0.5000000003996032 Pb
   0.4846949847390374    0.5000000000000000    0.7500000003996031 Pb
   0.4846949847390374    0.7500000000000001    0.0000000003996032 Pb
   0.4846949847390375    0.7500000000000001    0.2500000003996033 Pb
   0.4846949847390375    0.7500000000000001    0.5000000003996032 Pb
   0.4846949847390374    0.7500000000000001    0.7500000003996031 Pb
   0.7346949847390374    0.0000000000000000    0.0000000003996032 Pb
   0.7346949847390374    0.0000000000000000    0.2500000003996032 Pb
   0.7346949847390374    0.0000000000000000    0.5000000003996034 Pb
   0.7346949847390375    0.0000000000000000    0.7500000003996032 Pb
   0.7346949847390374    0.2500000000000000    0.0000000003996032 Pb
   0.7346949847390374    0.2500000000000000    0.2500000003996032 Pb
   0.7346949847390374    0.2500000000000000    0.5000000003996034 Pb
   0.7346949847390375    0.2500000000000000    0.7500000003996032 Pb
   0.7346949847390374    0.5000000000000000    0.0000000003996032 Pb
   0.7346949847390374    0.5000000000000000    0.2500000003996032 Pb
   0.7346949847390374    0.5000000000000000    0.5000000003996034 Pb
   0.7346949847390375    0.5000000000000000    0.7500000003996032 Pb
   0.7346949847390374    0.7500000000000001    0.0000000003996032 Pb
   0.7346949847390374    0.7500000000000001    0.2500000003996032 Pb
   0.7346949847390374    0.7500000000000001    0.5000000003996034 Pb
   0.7346949847390375    0.7500000000000001    0.7500000003996032 Pb
   0.9846949847390375    0.0000000000000000    0.0000000003996032 Pb
   0.9846949847390375    0.0000000000000000    0.2500000003996033 Pb
   0.9846949847390375    0.0000000000000000    0.5000000003996032 Pb
   0.9846949847390374    0.0000000000000000    0.7500000003996032 Pb
   0.9846949847390375    0.2500000000000000    0.0000000003996032 Pb
   0.9846949847390375    0.2500000000000000    0.2500000003996033 Pb
   0.9846949847390375    0.2500000000000000    0.5000000003996032 Pb
   0.9846949847390374    0.2500000000000000    0.7500000003996032 Pb
   0.9846949847390375    0.5000000000000000    0.0000000003996032 Pb
   0.9846949847390375    0.5000000000000000    0.2500000003996033 Pb
   0.9846949847390375    0.5000000000000000    0.5000000003996032 Pb
   0.9846949847390374    0.5000000000000000    0.7500000003996032 Pb
   0.9846949847390375    0.7500000000000001    0.0000000003996032 Pb
   0.9846949847390375    0.7500000000000001    0.2500000003996033 Pb
   0.9846949847390375    0.7500000000000001    0.5000000003996032 Pb
   0.9846949847390374    0.7500000000000001    0.7500000003996032 Pb
   0.1300137679296351    0.1232743451731026    0.1233121954274004 C
   0.1300137679296351    0.1232743451731026    0.3733121954274005 C
   0.1300137679296351    0.1232743451731026    0.6233121954274005 C
   0.1300137679296351    0.1232743451731026    0.8733121954274004 C
   0.1300137679296351    0.3732743451731026    0.1233121954274004 C
   0.1300137679296351    0.3732743451731026    0.3733121954274005 C
   0.1300137679296351    0.3732743451731026    0.6233121954274005 C
   0.1300137679296351    0.3732743451731026    0.8733121954274004 C
   0.1300137679296351    0.6232743451731027    0.1233121954274004 C
   0.1300137679296351    0.6232743451731027    0.3733121954274005 C
   0.1300137679296351    0.6232743451731027    0.6233121954274005 C
   0.1300137679296351    0.6232743451731027    0.8733121954274004 C
   0.1300137679296351    0.8732743451731027    0.1233121954274004 C
   0.1300137679296351    0.8732743451731027    0.3733121954274005 C
   0.1300137679296351    0.8732743451731027    0.6233121954274005 C
   0.1300137679296351    0.8732743451731027    0.8733121954274004 C
   0.3800137679296351    0.1232743451731026    0.1233121954274004 C
   0.3800137679296351    0.1232743451731026    0.3733121954274005 C
   0.3800137679296351    0.1232743451731026    0.6233121954274006 C
   0.3800137679296350    0.1232743451731026    0.8733121954274004 C
   0.3800137679296351    0.3732743451731026    0.1233121954274004 C
   0.3800137679296351    0.3732743451731026    0.3733121954274005 C
   0.3800137679296351    0.3732743451731026    0.6233121954274006 C
   0.3800137679296350    0.3732743451731026    0.8733121954274004 C
   0.3800137679296351    0.6232743451731027    0.1233121954274004 C
   0.3800137679296351    0.6232743451731027    0.3733121954274005 C
   0.3800137679296351    0.6232743451731027    0.6233121954274006 C
   0.3800137679296350    0.6232743451731027    0.8733121954274004 C
   0.3800137679296351    0.8732743451731027    0.1233121954274004 C
   0.3800137679296351    0.8732743451731027    0.3733121954274005 C
   0.3800137679296351    0.8732743451731027    0.6233121954274006 C
   0.3800137679296350    0.8732743451731027    0.8733121954274004 C
   0.6300137679296350    0.1232743451731026    0.1233121954274004 C
   0.6300137679296350    0.1232743451731026    0.3733121954274004 C
   0.6300137679296350    0.1232743451731026    0.6233121954274005 C
   0.6300137679296350    0.1232743451731026    0.8733121954274005 C
   0.6300137679296350    0.3732743451731026    0.1233121954274004 C
   0.6300137679296350    0.3732743451731026    0.3733121954274004 C
   0.6300137679296350    0.3732743451731026    0.6233121954274005 C
   0.6300137679296350    0.3732743451731026    0.8733121954274005 C
   0.6300137679296350    0.6232743451731027    0.1233121954274004 C
   0.6300137679296350    0.6232743451731027    0.3733121954274004 C
   0.6300137679296350    0.6232743451731027    0.6233121954274005 C
   0.6300137679296350    0.6232743451731027    0.8733121954274005 C
   0.6300137679296350    0.8732743451731027    0.1233121954274004 C
   0.6300137679296350    0.8732743451731027    0.3733121954274004 C
   0.6300137679296350    0.8732743451731027    0.6233121954274005 C
   0.6300137679296350    0.8732743451731027    0.8733121954274005 C
   0.8800137679296351    0.1232743451731026    0.1233121954274004 C
   0.8800137679296350    0.1232743451731026    0.3733121954274005 C
   0.8800137679296349    0.1232743451731026    0.6233121954274005 C
   0.8800137679296351    0.1232743451731026    0.8733121954274005 C