H320 Pb64 C64 I128 Br64 N128
1.0
  24.4879928969696401    0.0000000000000000    0.0000000497847375
   0.0000000000000000   25.0050565264943927    0.0000000000000000
  -0.0000032828485348    0.0000000000000000   25.2077209129784343
H Pb C I Br N
320 64 64 128 64 128
direct
   0.1713824296645169    0.1205017527558658    0.1205988825775856 H
   0.1273180631770146    0.1205017527558658    0.0418350639226916 H
   0.0610225530113119    0.1205017527558658    0.0688796824393427 H
   0.0610225535912034    0.1205017527558658    0.1723180817357260 H
   0.1273180640601386    0.1205017527558658    0.1993627008411454 H
   0.1713824296645169    0.1205017527558658    0.3705988825775856 H
   0.1273180631770146    0.1205017527558658    0.2918350639226916 H
   0.0610225530113119    0.1205017527558658    0.3188796824393427 H
   0.0610225535912034    0.1205017527558658    0.4223180817357259 H
   0.1273180640601386    0.1205017527558658    0.4493627008411454 H
   0.1713824296645169    0.1205017527558658    0.6205988825775856 H
   0.1273180631770146    0.1205017527558658    0.5418350639226917 H
   0.0610225530113119    0.1205017527558658    0.5688796824393427 H
   0.0610225535912034    0.1205017527558658    0.6723180817357259 H
   0.1273180640601386    0.1205017527558658    0.6993627008411453 H
   0.1713824296645169    0.1205017527558658    0.8705988825775856 H
   0.1273180631770146    0.1205017527558658    0.7918350639226915 H
   0.0610225530113119    0.1205017527558658    0.8188796824393427 H
   0.0610225535912034    0.1205017527558658    0.9223180817357259 H
   0.1273180640601386    0.1205017527558658    0.9493627008411455 H
   0.1713824296645169    0.3705017527558658    0.1205988825775856 H
   0.1273180631770146    0.3705017527558658    0.0418350639226916 H
   0.0610225530113119    0.3705017527558658    0.0688796824393427 H
   0.0610225535912034    0.3705017527558658    0.1723180817357260 H
   0.1273180640601386    0.3705017527558658    0.1993627008411454 H
   0.1713824296645169    0.3705017527558658    0.3705988825775856 H
   0.1273180631770146    0.3705017527558658    0.2918350639226916 H
   0.0610225530113119    0.3705017527558658    0.3188796824393427 H
   0.0610225535912034    0.3705017527558658    0.4223180817357259 H
   0.1273180640601386    0.3705017527558658    0.4493627008411454 H
   0.1713824296645169    0.3705017527558658    0.6205988825775856 H
   0.1273180631770146    0.3705017527558658    0.5418350639226917 H
   0.0610225530113119    0.3705017527558658    0.5688796824393427 H
   0.0610225535912034    0.3705017527558658    0.6723180817357259 H
   0.1273180640601386    0.3705017527558658    0.6993627008411453 H
   0.1713824296645169    0.3705017527558658    0.8705988825775856 H
   0.1273180631770146    0.3705017527558658    0.7918350639226915 H
   0.0610225530113119    0.3705017527558658    0.8188796824393427 H
   0.0610225535912034    0.3705017527558658    0.9223180817357259 H
   0.1273180640601386    0.3705017527558658    0.9493627008411455 H
   0.1713824296645169    0.6205017527558658    0.1205988825775856 H
   0.1273180631770146    0.6205017527558658    0.0418350639226916 H
   0.0610225530113119    0.6205017527558658    0.0688796824393427 H
   0.0610225535912034    0.6205017527558658    0.1723180817357260 H
   0.1273180640601386    0.6205017527558658    0.1993627008411454 H
   0.1713824296645169    0.6205017527558658    0.3705988825775856 H
   0.1273180631770146    0.6205017527558658    0.2918350639226916 H
   0.0610225530113119    0.6205017527558658    0.3188796824393427 H
   0.0610225535912034    0.6205017527558658    0.4223180817357259 H
   0.1273180640601386    0.6205017527558658    0.4493627008411454 H
   0.1713824296645169    0.6205017527558658    0.6205988825775856 H
   0.1273180631770146    0.6205017527558658    0.5418350639226917 H
   0.0610225530113119    0.6205017527558658    0.5688796824393427 H
   0.0610225535912034    0.6205017527558658    0.6723180817357259 H
   0.1273180640601386    0.6205017527558658    0.6993627008411453 H
   0.1713824296645169    0.6205017527558658    0.8705988825775856 H
   0.1273180631770146    0.6205017527558658    0.7918350639226915 H
   0.0610225530113119    0.6205017527558658    0.8188796824393427 H
   0.0610225535912034    0.6205017527558658    0.9223180817357259 H
   0.1273180640601386    0.6205017527558658    0.9493627008411455 H
   0.1713824296645169    0.8705017527558657    0.1205988825775856 H
   0.1273180631770146    0.8705017527558657    0.0418350639226916 H
   0.0610225530113119    0.8705017527558657    0.0688796824393427 H
   0.0610225535912034    0.8705017527558657    0.1723180817357260 H
   0.1273180640601386    0.8705017527558657    0.1993627008411454 H
   0.1713824296645169    0.8705017527558657    0.3705988825775856 H
   0.1273180631770146    0.8705017527558657    0.2918350639226916 H
   0.0610225530113119    0.8705017527558657    0.3188796824393427 H
   0.0610225535912034    0.8705017527558657    0.4223180817357259 H
   0.1273180640601386    0.8705017527558657    0.4493627008411454 H
   0.1713824296645169    0.8705017527558657    0.6205988825775856 H
   0.1273180631770146    0.8705017527558657    0.5418350639226917 H
   0.0610225530113119    0.8705017527558657    0.5688796824393427 H
   0.0610225535912034    0.8705017527558657    0.6723180817357259 H
   0.1273180640601386    0.8705017527558657    0.6993627008411453 H
   0.1713824296645169    0.8705017527558657    0.8705988825775856 H
   0.1273180631770146    0.8705017527558657    0.7918350639226915 H
   0.0610225530113119    0.8705017527558657    0.8188796824393427 H
   0.0610225535912034    0.8705017527558657    0.9223180817357259 H
   0.1273180640601386    0.8705017527558657    0.9493627008411455 H
   0.4213824296645169    0.1205017527558658    0.1205988825775856 H
   0.3773180631770147    0.1205017527558658    0.0418350639226916 H
   0.3110225530113119    0.1205017527558658    0.0688796824393427 H
   0.3110225535912035    0.1205017527558658    0.1723180817357260 H
   0.3773180640601387    0.1205017527558658    0.1993627008411454 H
   0.4213824296645169    0.1205017527558658    0.3705988825775856 H
   0.3773180631770147    0.1205017527558658    0.2918350639226916 H
   0.3110225530113119    0.1205017527558658    0.3188796824393427 H
   0.3110225535912035    0.1205017527558658    0.4223180817357259 H
   0.3773180640601387    0.1205017527558658    0.4493627008411454 H
   0.4213824296645169    0.1205017527558658    0.6205988825775854 H
   0.3773180631770146    0.1205017527558658    0.5418350639226917 H
   0.3110225530113119    0.1205017527558658    0.5688796824393427 H
   0.3110225535912034    0.1205017527558658    0.6723180817357259 H
   0.3773180640601386    0.1205017527558658    0.6993627008411454 H
   0.4213824296645169    0.1205017527558658    0.8705988825775854 H
   0.3773180631770146    0.1205017527558658    0.7918350639226915 H
   0.3110225530113119    0.1205017527558658    0.8188796824393427 H
   0.3110225535912034    0.1205017527558658    0.9223180817357259 H
   0.3773180640601386    0.1205017527558658    0.9493627008411454 H
   0.4213824296645169    0.3705017527558658    0.1205988825775856 H
   0.3773180631770147    0.3705017527558658    0.0418350639226916 H
   0.3110225530113119    0.3705017527558658    0.0688796824393427 H
   0.3110225535912035    0.3705017527558658    0.1723180817357260 H
   0.3773180640601387    0.3705017527558658    0.1993627008411454 H
   0.4213824296645169    0.3705017527558658    0.3705988825775856 H
   0.3773180631770147    0.3705017527558658    0.2918350639226916 H
   0.3110225530113119    0.3705017527558658    0.3188796824393427 H
   0.3110225535912035    0.3705017527558658    0.4223180817357259 H
   0.3773180640601387    0.3705017527558658    0.4493627008411454 H
   0.4213824296645169    0.3705017527558658    0.6205988825775854 H
   0.3773180631770146    0.3705017527558658    0.5418350639226917 H
   0.3110225530113119    0.3705017527558658    0.5688796824393427 H
   0.3110225535912034    0.3705017527558658    0.6723180817357259 H
   0.3773180640601386    0.3705017527558658    0.6993627008411454 H
   0.4213824296645169    0.3705017527558658    0.8705988825775854 H
   0.3773180631770146    0.3705017527558658    0.7918350639226915 H
   0.3110225530113119    0.3705017527558658    0.8188796824393427 H
   0.3110225535912034    0.3705017527558658    0.9223180817357259 H
   0.3773180640601386    0.3705017527558658    0.9493627008411454 H
   0.4213824296645169    0.6205017527558658    0.1205988825775856 H
   0.3773180631770147    0.6205017527558658    0.0418350639226916 H
   0.3110225530113119    0.6205017527558658    0.0688796824393427 H
   0.3110225535912035    0.6205017527558658    0.1723180817357260 H
   0.3773180640601387    0.6205017527558658    0.1993627008411454 H
   0.4213824296645169    0.6205017527558658    0.3705988825775856 H
   0.3773180631770147    0.6205017527558658    0.2918350639226916 H
   0.3110225530113119    0.6205017527558658    0.3188796824393427 H
   0.3110225535912035    0.6205017527558658    0.4223180817357259 H
   0.3773180640601387    0.6205017527558658    0.4493627008411454 H
   0.4213824296645169    0.6205017527558658    0.6205988825775854 H
   0.3773180631770146    0.6205017527558658    0.5418350639226917 H
   0.3110225530113119    0.6205017527558658    0.5688796824393427 H
   0.3110225535912034    0.6205017527558658    0.6723180817357259 H
   0.3773180640601386    0.6205017527558658    0.6993627008411454 H
   0.4213824296645169    0.6205017527558658    0.8705988825775854 H
   0.3773180631770146    0.6205017527558658    0.7918350639226915 H
   0.3110225530113119    0.6205017527558658    0.8188796824393427 H
   0.3110225535912034    0.6205017527558658    0.9223180817357259 H
   0.3773180640601386    0.6205017527558658    0.9493627008411454 H
   0.4213824296645169    0.8705017527558657    0.1205988825775856 H
   0.3773180631770147    0.8705017527558657    0.0418350639226916 H
   0.3110225530113119    0.8705017527558657    0.0688796824393427 H
   0.3110225535912035    0.8705017527558657    0.1723180817357260 H
   0.3773180640601387    0.8705017527558657    0.1993627008411454 H
   0.4213824296645169    0.8705017527558657    0.3705988825775856 H
   0.3773180631770147    0.8705017527558657    0.2918350639226916 H
   0.3110225530113119    0.8705017527558657    0.3188796824393427 H
   0.3110225535912035    0.8705017527558657    0.4223180817357259 H
   0.3773180640601387    0.8705017527558657    0.4493627008411454 H
   0.4213824296645169    0.8705017527558657    0.6205988825775854 H
   0.3773180631770146    0.8705017527558657    0.5418350639226917 H
   0.3110225530113119    0.8705017527558657    0.5688796824393427 H
   0.3110225535912034    0.8705017527558657    0.6723180817357259 H
   0.3773180640601386    0.8705017527558657    0.6993627008411454 H
   0.4213824296645169    0.8705017527558657    0.8705988825775854 H
   0.3773180631770146    0.8705017527558657    0.7918350639226915 H
   0.3110225530113119    0.8705017527558657    0.8188796824393427 H
   0.3110225535912034    0.8705017527558657    0.9223180817357259 H
   0.3773180640601386    0.8705017527558657    0.9493627008411454 H
   0.6713824296645170    0.1205017527558658    0.1205988825775856 H
   0.6273180631770147    0.1205017527558658    0.0418350639226916 H
   0.5610225530113120    0.1205017527558658    0.0688796824393427 H
   0.5610225535912035    0.1205017527558658    0.1723180817357260 H
   0.6273180640601387    0.1205017527558658    0.1993627008411454 H
   0.6713824296645170    0.1205017527558658    0.3705988825775856 H
   0.6273180631770148    0.1205017527558658    0.2918350639226916 H
   0.5610225530113120    0.1205017527558658    0.3188796824393427 H
   0.5610225535912036    0.1205017527558658    0.4223180817357259 H
   0.6273180640601388    0.1205017527558658    0.4493627008411454 H
   0.6713824296645170    0.1205017527558658    0.6205988825775856 H
   0.6273180631770148    0.1205017527558658    0.5418350639226917 H
   0.5610225530113120    0.1205017527558658    0.5688796824393427 H
   0.5610225535912035    0.1205017527558658    0.6723180817357259 H
   0.6273180640601387    0.1205017527558658    0.6993627008411453 H
   0.6713824296645170    0.1205017527558658    0.8705988825775856 H
   0.6273180631770147    0.1205017527558658    0.7918350639226915 H
   0.5610225530113120    0.1205017527558658    0.8188796824393427 H
   0.5610225535912035    0.1205017527558658    0.9223180817357259 H
   0.6273180640601387    0.1205017527558658    0.9493627008411455 H
   0.6713824296645170    0.3705017527558658    0.1205988825775856 H
   0.6273180631770147    0.3705017527558658    0.0418350639226916 H
   0.5610225530113120    0.3705017527558658    0.0688796824393427 H
   0.5610225535912035    0.3705017527558658    0.1723180817357260 H
   0.6273180640601387    0.3705017527558658    0.1993627008411454 H
   0.6713824296645170    0.3705017527558658    0.3705988825775856 H
   0.6273180631770148    0.3705017527558658    0.2918350639226916 H
   0.5610225530113120    0.3705017527558658    0.3188796824393427 H
   0.5610225535912036    0.3705017527558658    0.4223180817357259 H
   0.6273180640601388    0.3705017527558658    0.4493627008411454 H
   0.6713824296645170    0.3705017527558658    0.6205988825775856 H
   0.6273180631770148    0.3705017527558658    0.5418350639226917 H
   0.5610225530113120    0.3705017527558658    0.5688796824393427 H
   0.5610225535912035    0.3705017527558658    0.6723180817357259 H
   0.6273180640601387    0.3705017527558658    0.6993627008411453 H
   0.6713824296645170    0.3705017527558658    0.8705988825775856 H
   0.6273180631770147    0.3705017527558658    0.7918350639226915 H
   0.5610225530113120    0.3705017527558658    0.8188796824393427 H
   0.5610225535912035    0.3705017527558658    0.9223180817357259 H
   0.6273180640601387    0.3705017527558658    0.9493627008411455 H
   0.6713824296645170    0.6205017527558658    0.1205988825775856 H
   0.6273180631770147    0.6205017527558658    0.0418350639226916 H
   0.5610225530113120    0.6205017527558658    0.0688796824393427 H
   0.5610225535912035    0.6205017527558658    0.1723180817357260 H
   0.6273180640601387    0.6205017527558658    0.1993627008411454 H
   0.6713824296645170    0.6205017527558658    0.3705988825775856 H
   0.6273180631770148    0.6205017527558658    0.2918350639226916 H
   0.5610225530113120    0.6205017527558658    0.3188796824393427 H
   0.5610225535912036    0.6205017527558658    0.4223180817357259 H
   0.6273180640601388    0.6205017527558658    0.4493627008411454 H
   0.6713824296645170    0.6205017527558658    0.6205988825775856 H
   0.6273180631770148    0.6205017527558658    0.5418350639226917 H
   0.5610225530113120    0.6205017527558658    0.5688796824393427 H
   0.5610225535912035    0.6205017527558658    0.6723180817357259 H
   0.6273180640601387    0.6205017527558658    0.6993627008411453 H
   0.6713824296645170    0.6205017527558658    0.8705988825775856 H
   0.6273180631770147    0.6205017527558658    0.7918350639226915 H
   0.5610225530113120    0.6205017527558658    0.8188796824393427 H
   0.5610225535912035    0.6205017527558658    0.9223180817357259 H
   0.6273180640601387    0.6205017527558658    0.9493627008411455 H
   0.6713824296645170    0.8705017527558657    0.1205988825775856 H
   0.6273180631770147    0.8705017527558657    0.0418350639226916 H
   0.5610225530113120    0.8705017527558657    0.0688796824393427 H
   0.5610225535912035    0.8705017527558657    0.1723180817357260 H
   0.6273180640601387    0.8705017527558657    0.1993627008411454 H
   0.6713824296645170    0.8705017527558657    0.3705988825775856 H
   0.6273180631770148    0.8705017527558657    0.2918350639226916 H
   0.5610225530113120    0.8705017527558657    0.3188796824393427 H
   0.5610225535912036    0.8705017527558657    0.4223180817357259 H
   0.6273180640601388    0.8705017527558657    0.4493627008411454 H
   0.6713824296645170    0.8705017527558657    0.6205988825775856 H
   0.6273180631770148    0.8705017527558657    0.5418350639226917 H
   0.5610225530113120    0.8705017527558657    0.5688796824393427 H
   0.5610225535912035    0.8705017527558657    0.6723180817357259 H
   0.6273180640601387    0.8705017527558657    0.6993627008411453 H
   0.6713824296645170    0.8705017527558657    0.8705988825775856 H
   0.6273180631770147    0.8705017527558657    0.7918350639226915 H
   0.5610225530113120    0.8705017527558657    0.8188796824393427 H
   0.5610225535912035    0.8705017527558657    0.9223180817357259 H
   0.6273180640601387    0.8705017527558657    0.9493627008411455 H
   0.9213824296645169    0.1205017527558658    0.1205988825775856 H
   0.8773180631770147    0.1205017527558658    0.0418350639226916 H
   0.8110225530113120    0.1205017527558658    0.0688796824393427 H
   0.8110225535912035    0.1205017527558658    0.1723180817357260 H
   0.8773180640601388    0.1205017527558658    0.1993627008411454 H
   0.9213824296645170    0.1205017527558658    0.3705988825775856 H
   0.8773180631770147    0.1205017527558658    0.2918350639226915 H
   0.8110225530113120    0.1205017527558658    0.3188796824393427 H
   0.8110225535912033    0.1205017527558658    0.4223180817357260 H
   0.8773180640601387    0.1205017527558658    0.4493627008411453 H
   0.9213824296645171    0.1205017527558658    0.6205988825775854 H
   0.8773180631770148    0.1205017527558658    0.5418350639226917 H
   0.8110225530113120    0.1205017527558658    0.5688796824393427 H
   0.8110225535912036    0.1205017527558658    0.6723180817357259 H
   0.8773180640601388    0.1205017527558658    0.6993627008411454 H
   0.9213824296645170    0.1205017527558658    0.8705988825775854 H
   0.8773180631770148    0.1205017527558658    0.7918350639226915 H
   0.8110225530113120    0.1205017527558658    0.8188796824393427 H
   0.8110225535912035    0.1205017527558658    0.9223180817357259 H
   0.8773180640601388    0.1205017527558658    0.9493627008411454 H
   0.9213824296645169    0.3705017527558658    0.1205988825775856 H
   0.8773180631770147    0.3705017527558658    0.0418350639226916 H
   0.8110225530113120    0.3705017527558658    0.0688796824393427 H
   0.8110225535912035    0.3705017527558658    0.1723180817357260 H
   0.8773180640601388    0.3705017527558658    0.1993627008411454 H
   0.9213824296645170    0.3705017527558658    0.3705988825775856 H
   0.8773180631770147    0.3705017527558658    0.2918350639226915 H
   0.8110225530113120    0.3705017527558658    0.3188796824393427 H
   0.8110225535912033    0.3705017527558658    0.4223180817357260 H
   0.8773180640601387    0.3705017527558658    0.4493627008411453 H
   0.9213824296645171    0.3705017527558658    0.6205988825775854 H
   0.8773180631770148    0.3705017527558658    0.5418350639226917 H
   0.8110225530113120    0.3705017527558658    0.5688796824393427 H
   0.8110225535912036    0.3705017527558658    0.6723180817357259 H
   0.8773180640601388    0.3705017527558658    0.6993627008411454 H
   0.9213824296645170    0.3705017527558658    0.8705988825775854 H
   0.8773180631770148    0.3705017527558658    0.7918350639226915 H
   0.8110225530113120    0.3705017527558658    0.8188796824393427 H
   0.8110225535912035    0.3705017527558658    0.9223180817357259 H
   0.8773180640601388    0.3705017527558658    0.9493627008411454 H
   0.9213824296645169    0.6205017527558658    0.1205988825775856 H
   0.8773180631770147    0.6205017527558658    0.0418350639226916 H
   0.8110225530113120    0.6205017527558658    0.0688796824393427 H
   0.8110225535912035    0.6205017527558658    0.1723180817357260 H
   0.8773180640601388    0.6205017527558658    0.1993627008411454 H
   0.9213824296645170    0.6205017527558658    0.3705988825775856 H
   0.8773180631770147    0.6205017527558658    0.2918350639226915 H
   0.8110225530113120    0.6205017527558658    0.3188796824393427 H
   0.8110225535912033    0.6205017527558658    0.4223180817357260 H
   0.8773180640601387    0.6205017527558658    0.4493627008411453 H
   0.9213824296645171    0.6205017527558658    0.6205988825775854 H
   0.8773180631770148    0.6205017527558658    0.5418350639226917 H
   0.8110225530113120    0.6205017527558658    0.5688796824393427 H
   0.8110225535912036    0.6205017527558658    0.6723180817357259 H
   0.8773180640601388    0.6205017527558658    0.6993627008411454 H
   0.9213824296645170    0.6205017527558658    0.8705988825775854 H
   0.8773180631770148    0.6205017527558658    0.7918350639226915 H
   0.8110225530113120    0.6205017527558658    0.8188796824393427 H
   0.8110225535912035    0.6205017527558658    0.9223180817357259 H
   0.8773180640601388    0.6205017527558658    0.9493627008411454 H
   0.9213824296645169    0.8705017527558657    0.1205988825775856 H
   0.8773180631770147    0.8705017527558657    0.0418350639226916 H
   0.8110225530113120    0.8705017527558657    0.0688796824393427 H
   0.8110225535912035    0.8705017527558657    0.1723180817357260 H
   0.8773180640601388    0.8705017527558657    0.1993627008411454 H
   0.9213824296645170    0.8705017527558657    0.3705988825775856 H
   0.8773180631770147    0.8705017527558657    0.2918350639226915 H
   0.8110225530113120    0.8705017527558657    0.3188796824393427 H
   0.8110225535912033    0.8705017527558657    0.4223180817357260 H
   0.8773180640601387    0.8705017527558657    0.4493627008411453 H
   0.9213824296645171    0.8705017527558657    0.6205988825775854 H
   0.8773180631770148    0.8705017527558657    0.5418350639226917 H
   0.8110225530113120    0.8705017527558657    0.5688796824393427 H
   0.8110225535912036    0.8705017527558657    0.6723180817357259 H
   0.8773180640601388    0.8705017527558657    0.6993627008411454 H
   0.9213824296645170    0.8705017527558657    0.8705988825775854 H
   0.8773180631770148    0.8705017527558657    0.7918350639226915 H
   0.8110225530113120    0.8705017527558657    0.8188796824393427 H
   0.8110225535912035    0.8705017527558657    0.9223180817357259 H
   0.8773180640601388    0.8705017527558657    0.9493627008411454 H
   0.2285828733125290    0.0000000000000000    0.0000000010150185 Pb
   0.2285828733125290    0.0000000000000000    0.2500000010150185 Pb
   0.2285828733125290    0.0000000000000000    0.5000000010150184 Pb
   0.2285828733125290    0.0000000000000000    0.7500000010150185 Pb
   0.2285828733125290    0.2500000000000000    0.0000000010150185 Pb
   0.2285828733125290    0.2500000000000000    0.2500000010150185 Pb
   0.2285828733125290    0.2500000000000000    0.5000000010150184 Pb
   0.2285828733125290    0.2500000000000000    0.7500000010150185 Pb
   0.2285828733125290    0.5000000000000000    0.0000000010150185 Pb
   0.2285828733125290    0.5000000000000000    0.2500000010150185 Pb
   0.2285828733125290    0.5000000000000000    0.5000000010150184 Pb
   0.2285828733125290    0.5000000000000000    0.7500000010150185 Pb
   0.2285828733125290    0.7500000000000000    0.0000000010150185 Pb
   0.2285828733125290    0.7500000000000000    0.2500000010150185 Pb
   0.2285828733125290    0.7500000000000000    0.5000000010150184 Pb
   0.2285828733125290    0.7500000000000000    0.7500000010150185 Pb
   0.4785828733125290    0.0000000000000000    0.0000000010150185 Pb
   0.4785828733125290    0.0000000000000000    0.2500000010150185 Pb
   0.4785828733125291    0.0000000000000000    0.5000000010150184 Pb
   0.4785828733125290    0.0000000000000000    0.7500000010150184 Pb
   0.4785828733125290    0.2500000000000000    0.0000000010150185 Pb
   0.4785828733125290    0.2500000000000000    0.2500000010150185 Pb
   0.4785828733125291    0.2500000000000000    0.5000000010150184 Pb
   0.4785828733125290    0.2500000000000000    0.7500000010150184 Pb
   0.4785828733125290    0.5000000000000000    0.0000000010150185 Pb
   0.4785828733125290    0.5000000000000000    0.2500000010150185 Pb
   0.4785828733125291    0.5000000000000000    0.5000000010150184 Pb
   0.4785828733125290    0.5000000000000000    0.7500000010150184 Pb
   0.4785828733125290    0.7500000000000000    0.0000000010150185 Pb
   0.4785828733125290    0.7500000000000000    0.2500000010150185 Pb
   0.4785828733125291    0.7500000000000000    0.5000000010150184 Pb
   0.4785828733125290    0.7500000000000000    0.7500000010150184 Pb
   0.7285828733125291    0.0000000000000000    0.0000000010150185 Pb
   0.7285828733125292    0.0000000000000000    0.2500000010150186 Pb
   0.7285828733125290    0.0000000000000000    0.5000000010150184 Pb
   0.7285828733125291    0.0000000000000000    0.7500000010150185 Pb
   0.7285828733125291    0.2500000000000000    0.0000000010150185 Pb
   0.7285828733125292    0.2500000000000000    0.2500000010150186 Pb
   0.7285828733125290    0.2500000000000000    0.5000000010150184 Pb
   0.7285828733125291    0.2500000000000000    0.7500000010150185 Pb
   0.7285828733125291    0.5000000000000000    0.0000000010150185 Pb
   0.7285828733125292    0.5000000000000000    0.2500000010150186 Pb
   0.7285828733125290    0.5000000000000000    0.5000000010150184 Pb
   0.7285828733125291    0.5000000000000000    0.7500000010150185 Pb
   0.7285828733125291    0.7500000000000000    0.0000000010150185 Pb
   0.7285828733125292    0.7500000000000000    0.2500000010150186 Pb
   0.7285828733125290    0.7500000000000000    0.5000000010150184 Pb
   0.7285828733125291    0.7500000000000000    0.7500000010150185 Pb
   0.9785828733125292    0.0000000000000000    0.0000000010150185 Pb
   0.9785828733125290    0.0000000000000000    0.2500000010150185 Pb
   0.9785828733125291    0.0000000000000000    0.5000000010150184 Pb
   0.9785828733125291    0.0000000000000000    0.7500000010150184 Pb
   0.9785828733125292    0.2500000000000000    0.0000000010150185 Pb
   0.9785828733125290    0.2500000000000000    0.2500000010150185 Pb
   0.9785828733125291    0.2500000000000000    0.5000000010150184 Pb
   0.9785828733125291    0.2500000000000000    0.7500000010150184 Pb
   0.9785828733125292    0.5000000000000000    0.0000000010150185 Pb
   0.9785828733125290    0.5000000000000000    0.2500000010150185 Pb
   0.9785828733125291    0.5000000000000000    0.5000000010150184 Pb
   0.9785828733125291    0.5000000000000000    0.7500000010150184 Pb
   0.9785828733125292    0.7500000000000000    0.0000000010150185 Pb
   0.9785828733125290    0.7500000000000000    0.2500000010150185 Pb
   0.9785828733125291    0.7500000000000000    0.5000000010150184 Pb
   0.9785828733125291    0.7500000000000000    0.7500000010150184 Pb
   0.1266278475205725    0.1205017527558658    0.1205986380455185 C
   0.1266278475205725    0.1205017527558658    0.3705986380455185 C
   0.1266278475205725    0.1205017527558658    0.6205986380455185 C
   0.1266278475205725    0.1205017527558658    0.8705986380455185 C
   0.1266278475205725    0.3705017527558658    0.1205986380455185 C
   0.1266278475205725    0.3705017527558658    0.3705986380455185 C
   0.1266278475205725    0.3705017527558658    0.6205986380455185 C
   0.1266278475205725    0.3705017527558658    0.8705986380455185 C
   0.1266278475205725    0.6205017527558658    0.1205986380455185 C
   0.1266278475205725    0.6205017527558658    0.3705986380455185 C
   0.1266278475205725    0.6205017527558658    0.6205986380455185 C
   0.1266278475205725    0.6205017527558658    0.8705986380455185 C
   0.1266278475205725    0.8705017527558657    0.1205986380455185 C
   0.1266278475205725    0.8705017527558657    0.3705986380455185 C
   0.1266278475205725    0.8705017527558657    0.6205986380455185 C
   0.1266278475205725    0.8705017527558657    0.8705986380455185 C
   0.3766278475205725    0.1205017527558658    0.1205986380455185 C
   0.3766278475205725    0.1205017527558658    0.3705986380455185 C
   0.3766278475205725    0.1205017527558658    0.6205986380455185 C
   0.3766278475205725    0.1205017527558658    0.8705986380455185 C
   0.3766278475205725    0.3705017527558658    0.1205986380455185 C
   0.3766278475205725    0.3705017527558658    0.3705986380455185 C
   0.3766278475205725    0.3705017527558658    0.6205986380455185 C
   0.3766278475205725    0.3705017527558658    0.8705986380455185 C
   0.3766278475205725    0.6205017527558658    0.1205986380455185 C
   0.3766278475205725    0.6205017527558658    0.3705986380455185 C
   0.3766278475205725    0.6205017527558658    0.6205986380455185 C
   0.3766278475205725    0.6205017527558658    0.8705986380455185 C
   0.3766278475205725    0.8705017527558657    0.1205986380455185 C
   0.3766278475205725    0.8705017527558657    0.3705986380455185 C
   0.3766278475205725    0.8705017527558657    0.6205986380455185 C
   0.3766278475205725    0.8705017527558657    0.8705986380455185 C
   0.6266278475205727    0.1205017527558658    0.1205986380455185 C
   0.6266278475205727    0.1205017527558658    0.3705986380455185 C
   0.6266278475205727    0.1205017527558658    0.6205986380455185 C
   0.6266278475205727    0.1205017527558658    0.8705986380455185 C
   0.6266278475205727    0.3705017527558658    0.1205986380455185 C
   0.6266278475205727    0.3705017527558658    0.3705986380455185 C
   0.6266278475205727    0.3705017527558658    0.6205986380455185 C
   0.6266278475205727    0.3705017527558658    0.8705986380455185 C
   0.6266278475205727    0.6205017527558658    0.1205986380455185 C
   0.6266278475205727    0.6205017527558658    0.3705986380455185 C
   0.6266278475205727    0.6205017527558658    0.6205986380455185 C
   0.6266278475205727    0.6205017527558658    0.8705986380455185 C
   0.6266278475205727    0.8705017527558657    0.1205986380455185 C
   0.6266278475205727    0.8705017527558657    0.3705986380455185 C
   0.6266278475205727    0.8705017527558657    0.6205986380455185 C
   0.6266278475205727    0.8705017527558657    0.8705986380455185 C
   0.8766278475205725    0.1205017527558658    0.1205986380455185 C
   0.8766278475205725    0.1205017527558658    0.3705986380455185 C
   0.8766278475205728    0.1205017527558658    0.6205986380455185 C
   0.8766278475205727    0.1205017527558658    0.8705986380455185 C