H320 Pb64 C64 I160 Br32 N128
1.0
  24.7430871272349435    0.0000000000000000    0.0000000234857661
   0.0000000000000000   25.2300143797138361    0.0000000000000000
  -0.0000033448574002    0.0000000000000000   25.4296052307245795
H Pb C I Br N
320 64 64 160 32 128
direct
   0.1696155254462609    0.1194273254804325    0.1195466052814887 H
   0.1260054500101602    0.1194273254804325    0.0414700350064749 H
   0.0603934278399732    0.1194273254804325    0.0682786774458970 H
   0.0603934285511049    0.1194273254804325    0.1708145319151627 H
   0.1260054510931515    0.1194273254804325    0.1976231750766023 H
   0.1696155254462609    0.1194273254804325    0.3695466052814887 H
   0.1260054500101602    0.1194273254804325    0.2914700350064748 H
   0.0603934278399732    0.1194273254804325    0.3182786774458969 H
   0.0603934285511049    0.1194273254804325    0.4208145319151627 H
   0.1260054510931515    0.1194273254804325    0.4476231750766023 H
   0.1696155254462609    0.1194273254804325    0.6195466052814887 H
   0.1260054500101602    0.1194273254804325    0.5414700350064747 H
   0.0603934278399732    0.1194273254804325    0.5682786774458970 H
   0.0603934285511049    0.1194273254804325    0.6708145319151628 H
   0.1260054510931515    0.1194273254804325    0.6976231750766023 H
   0.1696155254462610    0.1194273254804325    0.8695466052814886 H
   0.1260054500101602    0.1194273254804325    0.7914700350064748 H
   0.0603934278399732    0.1194273254804325    0.8182786774458970 H
   0.0603934285511049    0.1194273254804325    0.9208145319151627 H
   0.1260054510931515    0.1194273254804325    0.9476231750766023 H
   0.1696155254462609    0.3694273254804325    0.1195466052814887 H
   0.1260054500101602    0.3694273254804325    0.0414700350064749 H
   0.0603934278399732    0.3694273254804325    0.0682786774458970 H
   0.0603934285511049    0.3694273254804325    0.1708145319151627 H
   0.1260054510931515    0.3694273254804325    0.1976231750766023 H
   0.1696155254462609    0.3694273254804325    0.3695466052814887 H
   0.1260054500101602    0.3694273254804325    0.2914700350064748 H
   0.0603934278399732    0.3694273254804325    0.3182786774458969 H
   0.0603934285511049    0.3694273254804325    0.4208145319151627 H
   0.1260054510931515    0.3694273254804325    0.4476231750766023 H
   0.1696155254462609    0.3694273254804325    0.6195466052814887 H
   0.1260054500101602    0.3694273254804325    0.5414700350064747 H
   0.0603934278399732    0.3694273254804325    0.5682786774458970 H
   0.0603934285511049    0.3694273254804325    0.6708145319151628 H
   0.1260054510931515    0.3694273254804325    0.6976231750766023 H
   0.1696155254462610    0.3694273254804325    0.8695466052814886 H
   0.1260054500101602    0.3694273254804325    0.7914700350064748 H
   0.0603934278399732    0.3694273254804325    0.8182786774458970 H
   0.0603934285511049    0.3694273254804325    0.9208145319151627 H
   0.1260054510931515    0.3694273254804325    0.9476231750766023 H
   0.1696155254462609    0.6194273254804326    0.1195466052814887 H
   0.1260054500101602    0.6194273254804326    0.0414700350064749 H
   0.0603934278399732    0.6194273254804326    0.0682786774458970 H
   0.0603934285511049    0.6194273254804326    0.1708145319151627 H
   0.1260054510931515    0.6194273254804326    0.1976231750766023 H
   0.1696155254462609    0.6194273254804326    0.3695466052814887 H
   0.1260054500101602    0.6194273254804326    0.2914700350064748 H
   0.0603934278399732    0.6194273254804326    0.3182786774458969 H
   0.0603934285511049    0.6194273254804326    0.4208145319151627 H
   0.1260054510931515    0.6194273254804326    0.4476231750766023 H
   0.1696155254462609    0.6194273254804326    0.6195466052814887 H
   0.1260054500101602    0.6194273254804326    0.5414700350064747 H
   0.0603934278399732    0.6194273254804326    0.5682786774458970 H
   0.0603934285511049    0.6194273254804326    0.6708145319151628 H
   0.1260054510931515    0.6194273254804326    0.6976231750766023 H
   0.1696155254462610    0.6194273254804326    0.8695466052814886 H
   0.1260054500101602    0.6194273254804326    0.7914700350064748 H
   0.0603934278399732    0.6194273254804326    0.8182786774458970 H
   0.0603934285511049    0.6194273254804326    0.9208145319151627 H
   0.1260054510931515    0.6194273254804326    0.9476231750766023 H
   0.1696155254462609    0.8694273254804326    0.1195466052814887 H
   0.1260054500101602    0.8694273254804326    0.0414700350064749 H
   0.0603934278399732    0.8694273254804326    0.0682786774458970 H
   0.0603934285511049    0.8694273254804326    0.1708145319151627 H
   0.1260054510931515    0.8694273254804326    0.1976231750766023 H
   0.1696155254462609    0.8694273254804326    0.3695466052814887 H
   0.1260054500101602    0.8694273254804326    0.2914700350064748 H
   0.0603934278399732    0.8694273254804326    0.3182786774458969 H
   0.0603934285511049    0.8694273254804326    0.4208145319151627 H
   0.1260054510931515    0.8694273254804326    0.4476231750766023 H
   0.1696155254462609    0.8694273254804326    0.6195466052814887 H
   0.1260054500101602    0.8694273254804326    0.5414700350064747 H
   0.0603934278399732    0.8694273254804326    0.5682786774458970 H
   0.0603934285511049    0.8694273254804326    0.6708145319151628 H
   0.1260054510931515    0.8694273254804326    0.6976231750766023 H
   0.1696155254462610    0.8694273254804326    0.8695466052814886 H
   0.1260054500101602    0.8694273254804326    0.7914700350064748 H
   0.0603934278399732    0.8694273254804326    0.8182786774458970 H
   0.0603934285511049    0.8694273254804326    0.9208145319151627 H
   0.1260054510931515    0.8694273254804326    0.9476231750766023 H
   0.4196155254462609    0.1194273254804325    0.1195466052814887 H
   0.3760054500101602    0.1194273254804325    0.0414700350064749 H
   0.3103934278399732    0.1194273254804325    0.0682786774458970 H
   0.3103934285511049    0.1194273254804325    0.1708145319151627 H
   0.3760054510931515    0.1194273254804325    0.1976231750766023 H
   0.4196155254462610    0.1194273254804325    0.3695466052814887 H
   0.3760054500101601    0.1194273254804325    0.2914700350064748 H
   0.3103934278399732    0.1194273254804325    0.3182786774458970 H
   0.3103934285511049    0.1194273254804325    0.4208145319151627 H
   0.3760054510931514    0.1194273254804325    0.4476231750766023 H
   0.4196155254462609    0.1194273254804325    0.6195466052814887 H
   0.3760054500101601    0.1194273254804325    0.5414700350064748 H
   0.3103934278399732    0.1194273254804325    0.5682786774458970 H
   0.3103934285511049    0.1194273254804325    0.6708145319151627 H
   0.3760054510931514    0.1194273254804325    0.6976231750766022 H
   0.4196155254462610    0.1194273254804325    0.8695466052814887 H
   0.3760054500101602    0.1194273254804325    0.7914700350064749 H
   0.3103934278399732    0.1194273254804325    0.8182786774458971 H
   0.3103934285511049    0.1194273254804325    0.9208145319151627 H
   0.3760054510931515    0.1194273254804325    0.9476231750766024 H
   0.4196155254462609    0.3694273254804325    0.1195466052814887 H
   0.3760054500101602    0.3694273254804325    0.0414700350064749 H
   0.3103934278399732    0.3694273254804325    0.0682786774458970 H
   0.3103934285511049    0.3694273254804325    0.1708145319151627 H
   0.3760054510931515    0.3694273254804325    0.1976231750766023 H
   0.4196155254462610    0.3694273254804325    0.3695466052814887 H
   0.3760054500101601    0.3694273254804325    0.2914700350064748 H
   0.3103934278399732    0.3694273254804325    0.3182786774458970 H
   0.3103934285511049    0.3694273254804325    0.4208145319151627 H
   0.3760054510931514    0.3694273254804325    0.4476231750766023 H
   0.4196155254462609    0.3694273254804325    0.6195466052814887 H
   0.3760054500101601    0.3694273254804325    0.5414700350064748 H
   0.3103934278399732    0.3694273254804325    0.5682786774458970 H
   0.3103934285511049    0.3694273254804325    0.6708145319151627 H
   0.3760054510931514    0.3694273254804325    0.6976231750766022 H
   0.4196155254462610    0.3694273254804325    0.8695466052814887 H
   0.3760054500101602    0.3694273254804325    0.7914700350064749 H
   0.3103934278399732    0.3694273254804325    0.8182786774458971 H
   0.3103934285511049    0.3694273254804325    0.9208145319151627 H
   0.3760054510931515    0.3694273254804325    0.9476231750766024 H
   0.4196155254462609    0.6194273254804326    0.1195466052814887 H
   0.3760054500101602    0.6194273254804326    0.0414700350064749 H
   0.3103934278399732    0.6194273254804326    0.0682786774458970 H
   0.3103934285511049    0.6194273254804326    0.1708145319151627 H
   0.3760054510931515    0.6194273254804326    0.1976231750766023 H
   0.4196155254462610    0.6194273254804326    0.3695466052814887 H
   0.3760054500101601    0.6194273254804326    0.2914700350064748 H
   0.3103934278399732    0.6194273254804326    0.3182786774458970 H
   0.3103934285511049    0.6194273254804326    0.4208145319151627 H
   0.3760054510931514    0.6194273254804326    0.4476231750766023 H
   0.4196155254462609    0.6194273254804326    0.6195466052814887 H
   0.3760054500101601    0.6194273254804326    0.5414700350064748 H
   0.3103934278399732    0.6194273254804326    0.5682786774458970 H
   0.3103934285511049    0.6194273254804326    0.6708145319151627 H
   0.3760054510931514    0.6194273254804326    0.6976231750766022 H
   0.4196155254462610    0.6194273254804326    0.8695466052814887 H
   0.3760054500101602    0.6194273254804326    0.7914700350064749 H
   0.3103934278399732    0.6194273254804326    0.8182786774458971 H
   0.3103934285511049    0.6194273254804326    0.9208145319151627 H
   0.3760054510931515    0.6194273254804326    0.9476231750766024 H
   0.4196155254462609    0.8694273254804326    0.1195466052814887 H
   0.3760054500101602    0.8694273254804326    0.0414700350064749 H
   0.3103934278399732    0.8694273254804326    0.0682786774458970 H
   0.3103934285511049    0.8694273254804326    0.1708145319151627 H
   0.3760054510931515    0.8694273254804326    0.1976231750766023 H
   0.4196155254462610    0.8694273254804326    0.3695466052814887 H
   0.3760054500101601    0.8694273254804326    0.2914700350064748 H
   0.3103934278399732    0.8694273254804326    0.3182786774458970 H
   0.3103934285511049    0.8694273254804326    0.4208145319151627 H
   0.3760054510931514    0.8694273254804326    0.4476231750766023 H
   0.4196155254462609    0.8694273254804326    0.6195466052814887 H
   0.3760054500101601    0.8694273254804326    0.5414700350064748 H
   0.3103934278399732    0.8694273254804326    0.5682786774458970 H
   0.3103934285511049    0.8694273254804326    0.6708145319151627 H
   0.3760054510931514    0.8694273254804326    0.6976231750766022 H
   0.4196155254462610    0.8694273254804326    0.8695466052814887 H
   0.3760054500101602    0.8694273254804326    0.7914700350064749 H
   0.3103934278399732    0.8694273254804326    0.8182786774458971 H
   0.3103934285511049    0.8694273254804326    0.9208145319151627 H
   0.3760054510931515    0.8694273254804326    0.9476231750766024 H
   0.6696155254462610    0.1194273254804325    0.1195466052814887 H
   0.6260054500101602    0.1194273254804325    0.0414700350064749 H
   0.5603934278399731    0.1194273254804325    0.0682786774458970 H
   0.5603934285511049    0.1194273254804325    0.1708145319151627 H
   0.6260054510931514    0.1194273254804325    0.1976231750766023 H
   0.6696155254462610    0.1194273254804325    0.3695466052814887 H
   0.6260054500101601    0.1194273254804325    0.2914700350064748 H
   0.5603934278399733    0.1194273254804325    0.3182786774458970 H
   0.5603934285511049    0.1194273254804325    0.4208145319151627 H
   0.6260054510931514    0.1194273254804325    0.4476231750766023 H
   0.6696155254462609    0.1194273254804325    0.6195466052814886 H
   0.6260054500101601    0.1194273254804325    0.5414700350064748 H
   0.5603934278399733    0.1194273254804325    0.5682786774458969 H
   0.5603934285511047    0.1194273254804325    0.6708145319151626 H
   0.6260054510931514    0.1194273254804325    0.6976231750766022 H
   0.6696155254462610    0.1194273254804325    0.8695466052814887 H
   0.6260054500101602    0.1194273254804325    0.7914700350064748 H
   0.5603934278399731    0.1194273254804325    0.8182786774458970 H
   0.5603934285511049    0.1194273254804325    0.9208145319151627 H
   0.6260054510931514    0.1194273254804325    0.9476231750766023 H
   0.6696155254462610    0.3694273254804325    0.1195466052814887 H
   0.6260054500101602    0.3694273254804325    0.0414700350064749 H
   0.5603934278399731    0.3694273254804325    0.0682786774458970 H
   0.5603934285511049    0.3694273254804325    0.1708145319151627 H
   0.6260054510931514    0.3694273254804325    0.1976231750766023 H
   0.6696155254462610    0.3694273254804325    0.3695466052814887 H
   0.6260054500101601    0.3694273254804325    0.2914700350064748 H
   0.5603934278399733    0.3694273254804325    0.3182786774458970 H
   0.5603934285511049    0.3694273254804325    0.4208145319151627 H
   0.6260054510931514    0.3694273254804325    0.4476231750766023 H
   0.6696155254462609    0.3694273254804325    0.6195466052814886 H
   0.6260054500101601    0.3694273254804325    0.5414700350064748 H
   0.5603934278399733    0.3694273254804325    0.5682786774458969 H
   0.5603934285511047    0.3694273254804325    0.6708145319151626 H
   0.6260054510931514    0.3694273254804325    0.6976231750766022 H
   0.6696155254462610    0.3694273254804325    0.8695466052814887 H
   0.6260054500101602    0.3694273254804325    0.7914700350064748 H
   0.5603934278399731    0.3694273254804325    0.8182786774458970 H
   0.5603934285511049    0.3694273254804325    0.9208145319151627 H
   0.6260054510931514    0.3694273254804325    0.9476231750766023 H
   0.6696155254462610    0.6194273254804326    0.1195466052814887 H
   0.6260054500101602    0.6194273254804326    0.0414700350064749 H
   0.5603934278399731    0.6194273254804326    0.0682786774458970 H
   0.5603934285511049    0.6194273254804326    0.1708145319151627 H
   0.6260054510931514    0.6194273254804326    0.1976231750766023 H
   0.6696155254462610    0.6194273254804326    0.3695466052814887 H
   0.6260054500101601    0.6194273254804326    0.2914700350064748 H
   0.5603934278399733    0.6194273254804326    0.3182786774458970 H
   0.5603934285511049    0.6194273254804326    0.4208145319151627 H
   0.6260054510931514    0.6194273254804326    0.4476231750766023 H
   0.6696155254462609    0.6194273254804326    0.6195466052814886 H
   0.6260054500101601    0.6194273254804326    0.5414700350064748 H
   0.5603934278399733    0.6194273254804326    0.5682786774458969 H
   0.5603934285511047    0.6194273254804326    0.6708145319151626 H
   0.6260054510931514    0.6194273254804326    0.6976231750766022 H
   0.6696155254462610    0.6194273254804326    0.8695466052814887 H
   0.6260054500101602    0.6194273254804326    0.7914700350064748 H
   0.5603934278399731    0.6194273254804326    0.8182786774458970 H
   0.5603934285511049    0.6194273254804326    0.9208145319151627 H
   0.6260054510931514    0.6194273254804326    0.9476231750766023 H
   0.6696155254462610    0.8694273254804326    0.1195466052814887 H
   0.6260054500101602    0.8694273254804326    0.0414700350064749 H
   0.5603934278399731    0.8694273254804326    0.0682786774458970 H
   0.5603934285511049    0.8694273254804326    0.1708145319151627 H
   0.6260054510931514    0.8694273254804326    0.1976231750766023 H
   0.6696155254462610    0.8694273254804326    0.3695466052814887 H
   0.6260054500101601    0.8694273254804326    0.2914700350064748 H
   0.5603934278399733    0.8694273254804326    0.3182786774458970 H
   0.5603934285511049    0.8694273254804326    0.4208145319151627 H
   0.6260054510931514    0.8694273254804326    0.4476231750766023 H
   0.6696155254462609    0.8694273254804326    0.6195466052814886 H
   0.6260054500101601    0.8694273254804326    0.5414700350064748 H
   0.5603934278399733    0.8694273254804326    0.5682786774458969 H
   0.5603934285511047    0.8694273254804326    0.6708145319151626 H
   0.6260054510931514    0.8694273254804326    0.6976231750766022 H
   0.6696155254462610    0.8694273254804326    0.8695466052814887 H
   0.6260054500101602    0.8694273254804326    0.7914700350064748 H
   0.5603934278399731    0.8694273254804326    0.8182786774458970 H
   0.5603934285511049    0.8694273254804326    0.9208145319151627 H
   0.6260054510931514    0.8694273254804326    0.9476231750766023 H
   0.9196155254462608    0.1194273254804325    0.1195466052814887 H
   0.8760054500101602    0.1194273254804325    0.0414700350064749 H
   0.8103934278399731    0.1194273254804325    0.0682786774458970 H
   0.8103934285511049    0.1194273254804325    0.1708145319151627 H
   0.8760054510931515    0.1194273254804325    0.1976231750766023 H
   0.9196155254462609    0.1194273254804325    0.3695466052814887 H
   0.8760054500101601    0.1194273254804325    0.2914700350064748 H
   0.8103934278399731    0.1194273254804325    0.3182786774458969 H
   0.8103934285511047    0.1194273254804325    0.4208145319151627 H
   0.8760054510931514    0.1194273254804325    0.4476231750766023 H
   0.9196155254462611    0.1194273254804325    0.6195466052814886 H
   0.8760054500101602    0.1194273254804325    0.5414700350064748 H
   0.8103934278399733    0.1194273254804325    0.5682786774458970 H
   0.8103934285511050    0.1194273254804325    0.6708145319151626 H
   0.8760054510931515    0.1194273254804325    0.6976231750766023 H
   0.9196155254462608    0.1194273254804325    0.8695466052814886 H
   0.8760054500101602    0.1194273254804325    0.7914700350064748 H
   0.8103934278399733    0.1194273254804325    0.8182786774458970 H
   0.8103934285511047    0.1194273254804325    0.9208145319151627 H
   0.8760054510931515    0.1194273254804325    0.9476231750766023 H
   0.9196155254462608    0.3694273254804325    0.1195466052814887 H
   0.8760054500101602    0.3694273254804325    0.0414700350064749 H
   0.8103934278399731    0.3694273254804325    0.0682786774458970 H
   0.8103934285511049    0.3694273254804325    0.1708145319151627 H
   0.8760054510931515    0.3694273254804325    0.1976231750766023 H
   0.9196155254462609    0.3694273254804325    0.3695466052814887 H
   0.8760054500101601    0.3694273254804325    0.2914700350064748 H
   0.8103934278399731    0.3694273254804325    0.3182786774458969 H
   0.8103934285511047    0.3694273254804325    0.4208145319151627 H
   0.8760054510931514    0.3694273254804325    0.4476231750766023 H
   0.9196155254462611    0.3694273254804325    0.6195466052814886 H
   0.8760054500101602    0.3694273254804325    0.5414700350064748 H
   0.8103934278399733    0.3694273254804325    0.5682786774458970 H
   0.8103934285511050    0.3694273254804325    0.6708145319151626 H
   0.8760054510931515    0.3694273254804325    0.6976231750766023 H
   0.9196155254462608    0.3694273254804325    0.8695466052814886 H
   0.8760054500101602    0.3694273254804325    0.7914700350064748 H
   0.8103934278399733    0.3694273254804325    0.8182786774458970 H
   0.8103934285511047    0.3694273254804325    0.9208145319151627 H
   0.8760054510931515    0.3694273254804325    0.9476231750766023 H
   0.9196155254462608    0.6194273254804326    0.1195466052814887 H
   0.8760054500101602    0.6194273254804326    0.0414700350064749 H
   0.8103934278399731    0.6194273254804326    0.0682786774458970 H
   0.8103934285511049    0.6194273254804326    0.1708145319151627 H
   0.8760054510931515    0.6194273254804326    0.1976231750766023 H
   0.9196155254462609    0.6194273254804326    0.3695466052814887 H
   0.8760054500101601    0.6194273254804326    0.2914700350064748 H
   0.8103934278399731    0.6194273254804326    0.3182786774458969 H
   0.8103934285511047    0.6194273254804326    0.4208145319151627 H
   0.8760054510931514    0.6194273254804326    0.4476231750766023 H
   0.9196155254462611    0.6194273254804326    0.6195466052814886 H
   0.8760054500101602    0.6194273254804326    0.5414700350064748 H
   0.8103934278399733    0.6194273254804326    0.5682786774458970 H
   0.8103934285511050    0.6194273254804326    0.6708145319151626 H
   0.8760054510931515    0.6194273254804326    0.6976231750766023 H
   0.9196155254462608    0.6194273254804326    0.8695466052814886 H
   0.8760054500101602    0.6194273254804326    0.7914700350064748 H
   0.8103934278399733    0.6194273254804326    0.8182786774458970 H
   0.8103934285511047    0.6194273254804326    0.9208145319151627 H
   0.8760054510931515    0.6194273254804326    0.9476231750766023 H
   0.9196155254462608    0.8694273254804326    0.1195466052814887 H
   0.8760054500101602    0.8694273254804326    0.0414700350064749 H
   0.8103934278399731    0.8694273254804326    0.0682786774458970 H
   0.8103934285511049    0.8694273254804326    0.1708145319151627 H
   0.8760054510931515    0.8694273254804326    0.1976231750766023 H
   0.9196155254462609    0.8694273254804326    0.3695466052814887 H
   0.8760054500101601    0.8694273254804326    0.2914700350064748 H
   0.8103934278399731    0.8694273254804326    0.3182786774458969 H
   0.8103934285511047    0.8694273254804326    0.4208145319151627 H
   0.8760054510931514    0.8694273254804326    0.4476231750766023 H
   0.9196155254462611    0.8694273254804326    0.6195466052814886 H
   0.8760054500101602    0.8694273254804326    0.5414700350064748 H
   0.8103934278399733    0.8694273254804326    0.5682786774458970 H
   0.8103934285511050    0.8694273254804326    0.6708145319151626 H
   0.8760054510931515    0.8694273254804326    0.6976231750766023 H
   0.9196155254462608    0.8694273254804326    0.8695466052814886 H
   0.8760054500101602    0.8694273254804326    0.7914700350064748 H
   0.8103934278399733    0.8694273254804326    0.8182786774458970 H
   0.8103934285511047    0.8694273254804326    0.9208145319151627 H
   0.8760054510931515    0.8694273254804326    0.9476231750766023 H
   0.2262262485381164    0.0000000000000000    0.0000000012447360 Pb
   0.2262262485381164    0.0000000000000000    0.2500000012447360 Pb
   0.2262262485381164    0.0000000000000000    0.5000000012447360 Pb
   0.2262262485381164    0.0000000000000000    0.7500000012447360 Pb
   0.2262262485381164    0.2500000000000000    0.0000000012447360 Pb
   0.2262262485381164    0.2500000000000000    0.2500000012447360 Pb
   0.2262262485381164    0.2500000000000000    0.5000000012447360 Pb
   0.2262262485381164    0.2500000000000000    0.7500000012447360 Pb
   0.2262262485381164    0.5000000000000000    0.0000000012447360 Pb
   0.2262262485381164    0.5000000000000000    0.2500000012447360 Pb
   0.2262262485381164    0.5000000000000000    0.5000000012447360 Pb
   0.2262262485381164    0.5000000000000000    0.7500000012447360 Pb
   0.2262262485381164    0.7500000000000000    0.0000000012447360 Pb
   0.2262262485381164    0.7500000000000000    0.2500000012447360 Pb
   0.2262262485381164    0.7500000000000000    0.5000000012447360 Pb
   0.2262262485381164    0.7500000000000000    0.7500000012447360 Pb
   0.4762262485381164    0.0000000000000000    0.0000000012447360 Pb
   0.4762262485381165    0.0000000000000000    0.2500000012447360 Pb
   0.4762262485381164    0.0000000000000000    0.5000000012447360 Pb
   0.4762262485381165    0.0000000000000000    0.7500000012447360 Pb
   0.4762262485381164    0.2500000000000000    0.0000000012447360 Pb
   0.4762262485381165    0.2500000000000000    0.2500000012447360 Pb
   0.4762262485381164    0.2500000000000000    0.5000000012447360 Pb
   0.4762262485381165    0.2500000000000000    0.7500000012447360 Pb
   0.4762262485381164    0.5000000000000000    0.0000000012447360 Pb
   0.4762262485381165    0.5000000000000000    0.2500000012447360 Pb
   0.4762262485381164    0.5000000000000000    0.5000000012447360 Pb
   0.4762262485381165    0.5000000000000000    0.7500000012447360 Pb
   0.4762262485381164    0.7500000000000000    0.0000000012447360 Pb
   0.4762262485381165    0.7500000000000000    0.2500000012447360 Pb
   0.4762262485381164    0.7500000000000000    0.5000000012447360 Pb
   0.4762262485381165    0.7500000000000000    0.7500000012447360 Pb
   0.7262262485381162    0.0000000000000000    0.0000000012447360 Pb
   0.7262262485381163    0.0000000000000000    0.2500000012447360 Pb
   0.7262262485381163    0.0000000000000000    0.5000000012447359 Pb
   0.7262262485381163    0.0000000000000000    0.7500000012447361 Pb
   0.7262262485381162    0.2500000000000000    0.0000000012447360 Pb
   0.7262262485381163    0.2500000000000000    0.2500000012447360 Pb
   0.7262262485381163    0.2500000000000000    0.5000000012447359 Pb
   0.7262262485381163    0.2500000000000000    0.7500000012447361 Pb
   0.7262262485381162    0.5000000000000000    0.0000000012447360 Pb
   0.7262262485381163    0.5000000000000000    0.2500000012447360 Pb
   0.7262262485381163    0.5000000000000000    0.5000000012447359 Pb
   0.7262262485381163    0.5000000000000000    0.7500000012447361 Pb
   0.7262262485381162    0.7500000000000000    0.0000000012447360 Pb
   0.7262262485381163    0.7500000000000000    0.2500000012447360 Pb
   0.7262262485381163    0.7500000000000000    0.5000000012447359 Pb
   0.7262262485381163    0.7500000000000000    0.7500000012447361 Pb
   0.9762262485381165    0.0000000000000000    0.0000000012447360 Pb
   0.9762262485381162    0.0000000000000000    0.2500000012447360 Pb
   0.9762262485381163    0.0000000000000000    0.5000000012447360 Pb
   0.9762262485381165    0.0000000000000000    0.7500000012447360 Pb
   0.9762262485381165    0.2500000000000000    0.0000000012447360 Pb
   0.9762262485381162    0.2500000000000000    0.2500000012447360 Pb
   0.9762262485381163    0.2500000000000000    0.5000000012447360 Pb
   0.9762262485381165    0.2500000000000000    0.7500000012447360 Pb
   0.9762262485381165    0.5000000000000000    0.0000000012447360 Pb
   0.9762262485381162    0.5000000000000000    0.2500000012447360 Pb
   0.9762262485381163    0.5000000000000000    0.5000000012447360 Pb
   0.9762262485381165    0.5000000000000000    0.7500000012447360 Pb
   0.9762262485381165    0.7500000000000000    0.0000000012447360 Pb
   0.9762262485381162    0.7500000000000000    0.2500000012447360 Pb
   0.9762262485381163    0.7500000000000000    0.5000000012447360 Pb
   0.9762262485381165    0.7500000000000000    0.7500000012447360 Pb
   0.1253223503864100    0.1194273254804325    0.1195463628363591 C
   0.1253223503864100    0.1194273254804325    0.3695463628363591 C
   0.1253223503864100    0.1194273254804325    0.6195463628363591 C
   0.1253223503864100    0.1194273254804325    0.8695463628363591 C
   0.1253223503864100    0.3694273254804325    0.1195463628363591 C
   0.1253223503864100    0.3694273254804325    0.3695463628363591 C
   0.1253223503864100    0.3694273254804325    0.6195463628363591 C
   0.1253223503864100    0.3694273254804325    0.8695463628363591 C
   0.1253223503864100    0.6194273254804326    0.1195463628363591 C
   0.1253223503864100    0.6194273254804326    0.3695463628363591 C
   0.1253223503864100    0.6194273254804326    0.6195463628363591 C
   0.1253223503864100    0.6194273254804326    0.8695463628363591 C
   0.1253223503864100    0.8694273254804326    0.1195463628363591 C
   0.1253223503864100    0.8694273254804326    0.3695463628363591 C
   0.1253223503864100    0.8694273254804326    0.6195463628363591 C
   0.1253223503864100    0.8694273254804326    0.8695463628363591 C
   0.3753223503864100    0.1194273254804325    0.1195463628363591 C
   0.3753223503864099    0.1194273254804325    0.3695463628363591 C
   0.3753223503864100    0.1194273254804325    0.6195463628363591 C
   0.3753223503864100    0.1194273254804325    0.8695463628363591 C
   0.3753223503864100    0.3694273254804325    0.1195463628363591 C
   0.3753223503864099    0.3694273254804325    0.3695463628363591 C
   0.3753223503864100    0.3694273254804325    0.6195463628363591 C
   0.3753223503864100    0.3694273254804325    0.8695463628363591 C
   0.3753223503864100    0.6194273254804326    0.1195463628363591 C
   0.3753223503864099    0.6194273254804326    0.3695463628363591 C
   0.3753223503864100    0.6194273254804326    0.6195463628363591 C
   0.3753223503864100    0.6194273254804326    0.8695463628363591 C
   0.3753223503864100    0.8694273254804326    0.1195463628363591 C
   0.3753223503864099    0.8694273254804326    0.3695463628363591 C
   0.3753223503864100    0.8694273254804326    0.6195463628363591 C
   0.3753223503864100    0.8694273254804326    0.8695463628363591 C
   0.6253223503864100    0.1194273254804325    0.1195463628363591 C
   0.6253223503864099    0.1194273254804325    0.3695463628363592 C
   0.6253223503864099    0.1194273254804325    0.6195463628363591 C
   0.6253223503864100    0.1194273254804325    0.8695463628363592 C
   0.6253223503864100    0.3694273254804325    0.1195463628363591 C
   0.6253223503864099    0.3694273254804325    0.3695463628363592 C
   0.6253223503864099    0.3694273254804325    0.6195463628363591 C
   0.6253223503864100    0.3694273254804325    0.8695463628363592 C
   0.6253223503864100    0.6194273254804326    0.1195463628363591 C
   0.6253223503864099    0.6194273254804326    0.3695463628363592 C
   0.6253223503864099    0.6194273254804326    0.6195463628363591 C
   0.6253223503864100    0.6194273254804326    0.8695463628363592 C
   0.6253223503864100    0.8694273254804326    0.1195463628363591 C
   0.6253223503864099    0.8694273254804326    0.3695463628363592 C
   0.6253223503864099    0.8694273254804326    0.6195463628363591 C
   0.6253223503864100    0.8694273254804326    0.8695463628363592 C
   0.8753223503864099    0.1194273254804325    0.1195463628363591 C
   0.8753223503864099    0.1194273254804325    0.3695463628363591 C
   0.8753223503864099    0.1194273254804325    0.6195463628363590 C
   0.8753223503864099    0.1194273254804325    0.8695463628363592 C