H320 Pb64 C64 I144 Br48 N128
1.0
  24.6155400121022900    0.0000000000000000    0.0000000366352518
   0.0000000000000000   25.1175354531041144    0.0000000000000000
  -0.0000033138529675    0.0000000000000000   25.3186630718515069
H Pb C I Br N
320 64 64 144 48 128
direct
   0.1704943998878200    0.1199621334198097    0.1200704384781976 H
   0.1266583558959667    0.1199621334198097    0.0416517497170138 H
   0.0607063604981513    0.1199621334198097    0.0685778631909635 H
   0.0607063611443051    0.1199621334198097    0.1715630126733361 H
   0.1266583568800024    0.1199621334198097    0.1984891268033307 H
   0.1704943998878200    0.1199621334198097    0.3700704384781976 H
   0.1266583558959667    0.1199621334198097    0.2916517497170138 H
   0.0607063604981513    0.1199621334198097    0.3185778631909634 H
   0.0607063611443051    0.1199621334198097    0.4215630126733361 H
   0.1266583568800024    0.1199621334198097    0.4484891268033307 H
   0.1704943998878200    0.1199621334198097    0.6200704384781975 H
   0.1266583558959667    0.1199621334198097    0.5416517497170138 H
   0.0607063604981513    0.1199621334198097    0.5685778631909635 H
   0.0607063611443051    0.1199621334198097    0.6715630126733361 H
   0.1266583568800024    0.1199621334198097    0.6984891268033306 H
   0.1704943998878200    0.1199621334198097    0.8700704384781975 H
   0.1266583558959667    0.1199621334198097    0.7916517497170139 H
   0.0607063604981513    0.1199621334198097    0.8185778631909636 H
   0.0607063611443051    0.1199621334198097    0.9215630126733361 H
   0.1266583568800024    0.1199621334198097    0.9484891268033308 H
   0.1704943998878200    0.3699621334198097    0.1200704384781976 H
   0.1266583558959667    0.3699621334198097    0.0416517497170138 H
   0.0607063604981513    0.3699621334198097    0.0685778631909635 H
   0.0607063611443051    0.3699621334198097    0.1715630126733361 H
   0.1266583568800024    0.3699621334198097    0.1984891268033307 H
   0.1704943998878200    0.3699621334198097    0.3700704384781976 H
   0.1266583558959667    0.3699621334198097    0.2916517497170138 H
   0.0607063604981513    0.3699621334198097    0.3185778631909634 H
   0.0607063611443051    0.3699621334198097    0.4215630126733361 H
   0.1266583568800024    0.3699621334198097    0.4484891268033307 H
   0.1704943998878200    0.3699621334198097    0.6200704384781975 H
   0.1266583558959667    0.3699621334198097    0.5416517497170138 H
   0.0607063604981513    0.3699621334198097    0.5685778631909635 H
   0.0607063611443051    0.3699621334198097    0.6715630126733361 H
   0.1266583568800024    0.3699621334198097    0.6984891268033306 H
   0.1704943998878200    0.3699621334198097    0.8700704384781975 H
   0.1266583558959667    0.3699621334198097    0.7916517497170139 H
   0.0607063604981513    0.3699621334198097    0.8185778631909636 H
   0.0607063611443051    0.3699621334198097    0.9215630126733361 H
   0.1266583568800024    0.3699621334198097    0.9484891268033308 H
   0.1704943998878200    0.6199621334198097    0.1200704384781976 H
   0.1266583558959667    0.6199621334198097    0.0416517497170138 H
   0.0607063604981513    0.6199621334198097    0.0685778631909635 H
   0.0607063611443051    0.6199621334198097    0.1715630126733361 H
   0.1266583568800024    0.6199621334198097    0.1984891268033307 H
   0.1704943998878200    0.6199621334198097    0.3700704384781976 H
   0.1266583558959667    0.6199621334198097    0.2916517497170138 H
   0.0607063604981513    0.6199621334198097    0.3185778631909634 H
   0.0607063611443051    0.6199621334198097    0.4215630126733361 H
   0.1266583568800024    0.6199621334198097    0.4484891268033307 H
   0.1704943998878200    0.6199621334198097    0.6200704384781975 H
   0.1266583558959667    0.6199621334198097    0.5416517497170138 H
   0.0607063604981513    0.6199621334198097    0.5685778631909635 H
   0.0607063611443051    0.6199621334198097    0.6715630126733361 H
   0.1266583568800024    0.6199621334198097    0.6984891268033306 H
   0.1704943998878200    0.6199621334198097    0.8700704384781975 H
   0.1266583558959667    0.6199621334198097    0.7916517497170139 H
   0.0607063604981513    0.6199621334198097    0.8185778631909636 H
   0.0607063611443051    0.6199621334198097    0.9215630126733361 H
   0.1266583568800024    0.6199621334198097    0.9484891268033308 H
   0.1704943998878200    0.8699621334198097    0.1200704384781976 H
   0.1266583558959667    0.8699621334198097    0.0416517497170138 H
   0.0607063604981513    0.8699621334198097    0.0685778631909635 H
   0.0607063611443051    0.8699621334198097    0.1715630126733361 H
   0.1266583568800024    0.8699621334198097    0.1984891268033307 H
   0.1704943998878200    0.8699621334198097    0.3700704384781976 H
   0.1266583558959667    0.8699621334198097    0.2916517497170138 H
   0.0607063604981513    0.8699621334198097    0.3185778631909634 H
   0.0607063611443051    0.8699621334198097    0.4215630126733361 H
   0.1266583568800024    0.8699621334198097    0.4484891268033307 H
   0.1704943998878200    0.8699621334198097    0.6200704384781975 H
   0.1266583558959667    0.8699621334198097    0.5416517497170138 H
   0.0607063604981513    0.8699621334198097    0.5685778631909635 H
   0.0607063611443051    0.8699621334198097    0.6715630126733361 H
   0.1266583568800024    0.8699621334198097    0.6984891268033306 H
   0.1704943998878200    0.8699621334198097    0.8700704384781975 H
   0.1266583558959667    0.8699621334198097    0.7916517497170139 H
   0.0607063604981513    0.8699621334198097    0.8185778631909636 H
   0.0607063611443051    0.8699621334198097    0.9215630126733361 H
   0.1266583568800024    0.8699621334198097    0.9484891268033308 H
   0.4204943998878200    0.1199621334198097    0.1200704384781975 H
   0.3766583558959667    0.1199621334198097    0.0416517497170138 H
   0.3107063604981513    0.1199621334198097    0.0685778631909635 H
   0.3107063611443051    0.1199621334198097    0.1715630126733361 H
   0.3766583568800024    0.1199621334198097    0.1984891268033307 H
   0.4204943998878200    0.1199621334198097    0.3700704384781975 H
   0.3766583558959667    0.1199621334198097    0.2916517497170138 H
   0.3107063604981513    0.1199621334198097    0.3185778631909635 H
   0.3107063611443051    0.1199621334198097    0.4215630126733361 H
   0.3766583568800024    0.1199621334198097    0.4484891268033307 H
   0.4204943998878199    0.1199621334198097    0.6200704384781975 H
   0.3766583558959667    0.1199621334198097    0.5416517497170138 H
   0.3107063604981513    0.1199621334198097    0.5685778631909635 H
   0.3107063611443051    0.1199621334198097    0.6715630126733361 H
   0.3766583568800024    0.1199621334198097    0.6984891268033306 H
   0.4204943998878199    0.1199621334198097    0.8700704384781975 H
   0.3766583558959667    0.1199621334198097    0.7916517497170138 H
   0.3107063604981513    0.1199621334198097    0.8185778631909636 H
   0.3107063611443051    0.1199621334198097    0.9215630126733361 H
   0.3766583568800024    0.1199621334198097    0.9484891268033309 H
   0.4204943998878200    0.3699621334198097    0.1200704384781975 H
   0.3766583558959667    0.3699621334198097    0.0416517497170138 H
   0.3107063604981513    0.3699621334198097    0.0685778631909635 H
   0.3107063611443051    0.3699621334198097    0.1715630126733361 H
   0.3766583568800024    0.3699621334198097    0.1984891268033307 H
   0.4204943998878200    0.3699621334198097    0.3700704384781975 H
   0.3766583558959667    0.3699621334198097    0.2916517497170138 H
   0.3107063604981513    0.3699621334198097    0.3185778631909635 H
   0.3107063611443051    0.3699621334198097    0.4215630126733361 H
   0.3766583568800024    0.3699621334198097    0.4484891268033307 H
   0.4204943998878199    0.3699621334198097    0.6200704384781975 H
   0.3766583558959667    0.3699621334198097    0.5416517497170138 H
   0.3107063604981513    0.3699621334198097    0.5685778631909635 H
   0.3107063611443051    0.3699621334198097    0.6715630126733361 H
   0.3766583568800024    0.3699621334198097    0.6984891268033306 H
   0.4204943998878199    0.3699621334198097    0.8700704384781975 H
   0.3766583558959667    0.3699621334198097    0.7916517497170138 H
   0.3107063604981513    0.3699621334198097    0.8185778631909636 H
   0.3107063611443051    0.3699621334198097    0.9215630126733361 H
   0.3766583568800024    0.3699621334198097    0.9484891268033309 H
   0.4204943998878200    0.6199621334198097    0.1200704384781975 H
   0.3766583558959667    0.6199621334198097    0.0416517497170138 H
   0.3107063604981513    0.6199621334198097    0.0685778631909635 H
   0.3107063611443051    0.6199621334198097    0.1715630126733361 H
   0.3766583568800024    0.6199621334198097    0.1984891268033307 H
   0.4204943998878200    0.6199621334198097    0.3700704384781975 H
   0.3766583558959667    0.6199621334198097    0.2916517497170138 H
   0.3107063604981513    0.6199621334198097    0.3185778631909635 H
   0.3107063611443051    0.6199621334198097    0.4215630126733361 H
   0.3766583568800024    0.6199621334198097    0.4484891268033307 H
   0.4204943998878199    0.6199621334198097    0.6200704384781975 H
   0.3766583558959667    0.6199621334198097    0.5416517497170138 H
   0.3107063604981513    0.6199621334198097    0.5685778631909635 H
   0.3107063611443051    0.6199621334198097    0.6715630126733361 H
   0.3766583568800024    0.6199621334198097    0.6984891268033306 H
   0.4204943998878199    0.6199621334198097    0.8700704384781975 H
   0.3766583558959667    0.6199621334198097    0.7916517497170138 H
   0.3107063604981513    0.6199621334198097    0.8185778631909636 H
   0.3107063611443051    0.6199621334198097    0.9215630126733361 H
   0.3766583568800024    0.6199621334198097    0.9484891268033309 H
   0.4204943998878200    0.8699621334198097    0.1200704384781975 H
   0.3766583558959667    0.8699621334198097    0.0416517497170138 H
   0.3107063604981513    0.8699621334198097    0.0685778631909635 H
   0.3107063611443051    0.8699621334198097    0.1715630126733361 H
   0.3766583568800024    0.8699621334198097    0.1984891268033307 H
   0.4204943998878200    0.8699621334198097    0.3700704384781975 H
   0.3766583558959667    0.8699621334198097    0.2916517497170138 H
   0.3107063604981513    0.8699621334198097    0.3185778631909635 H
   0.3107063611443051    0.8699621334198097    0.4215630126733361 H
   0.3766583568800024    0.8699621334198097    0.4484891268033307 H
   0.4204943998878199    0.8699621334198097    0.6200704384781975 H
   0.3766583558959667    0.8699621334198097    0.5416517497170138 H
   0.3107063604981513    0.8699621334198097    0.5685778631909635 H
   0.3107063611443051    0.8699621334198097    0.6715630126733361 H
   0.3766583568800024    0.8699621334198097    0.6984891268033306 H
   0.4204943998878199    0.8699621334198097    0.8700704384781975 H
   0.3766583558959667    0.8699621334198097    0.7916517497170138 H
   0.3107063604981513    0.8699621334198097    0.8185778631909636 H
   0.3107063611443051    0.8699621334198097    0.9215630126733361 H
   0.3766583568800024    0.8699621334198097    0.9484891268033309 H
   0.6704943998878200    0.1199621334198097    0.1200704384781976 H
   0.6266583558959667    0.1199621334198097    0.0416517497170138 H
   0.5607063604981513    0.1199621334198097    0.0685778631909635 H
   0.5607063611443051    0.1199621334198097    0.1715630126733361 H
   0.6266583568800024    0.1199621334198097    0.1984891268033307 H
   0.6704943998878199    0.1199621334198097    0.3700704384781976 H
   0.6266583558959667    0.1199621334198097    0.2916517497170138 H
   0.5607063604981514    0.1199621334198097    0.3185778631909635 H
   0.5607063611443051    0.1199621334198097    0.4215630126733361 H
   0.6266583568800025    0.1199621334198097    0.4484891268033306 H
   0.6704943998878200    0.1199621334198097    0.6200704384781975 H
   0.6266583558959667    0.1199621334198097    0.5416517497170138 H
   0.5607063604981513    0.1199621334198097    0.5685778631909635 H
   0.5607063611443051    0.1199621334198097    0.6715630126733361 H
   0.6266583568800024    0.1199621334198097    0.6984891268033308 H
   0.6704943998878200    0.1199621334198097    0.8700704384781975 H
   0.6266583558959667    0.1199621334198097    0.7916517497170138 H
   0.5607063604981514    0.1199621334198097    0.8185778631909635 H
   0.5607063611443051    0.1199621334198097    0.9215630126733361 H
   0.6266583568800024    0.1199621334198097    0.9484891268033306 H
   0.6704943998878200    0.3699621334198097    0.1200704384781976 H
   0.6266583558959667    0.3699621334198097    0.0416517497170138 H
   0.5607063604981513    0.3699621334198097    0.0685778631909635 H
   0.5607063611443051    0.3699621334198097    0.1715630126733361 H
   0.6266583568800024    0.3699621334198097    0.1984891268033307 H
   0.6704943998878199    0.3699621334198097    0.3700704384781976 H
   0.6266583558959667    0.3699621334198097    0.2916517497170138 H
   0.5607063604981514    0.3699621334198097    0.3185778631909635 H
   0.5607063611443051    0.3699621334198097    0.4215630126733361 H
   0.6266583568800025    0.3699621334198097    0.4484891268033306 H
   0.6704943998878200    0.3699621334198097    0.6200704384781975 H
   0.6266583558959667    0.3699621334198097    0.5416517497170138 H
   0.5607063604981513    0.3699621334198097    0.5685778631909635 H
   0.5607063611443051    0.3699621334198097    0.6715630126733361 H
   0.6266583568800024    0.3699621334198097    0.6984891268033308 H
   0.6704943998878200    0.3699621334198097    0.8700704384781975 H
   0.6266583558959667    0.3699621334198097    0.7916517497170138 H
   0.5607063604981514    0.3699621334198097    0.8185778631909635 H
   0.5607063611443051    0.3699621334198097    0.9215630126733361 H
   0.6266583568800024    0.3699621334198097    0.9484891268033306 H
   0.6704943998878200    0.6199621334198097    0.1200704384781976 H
   0.6266583558959667    0.6199621334198097    0.0416517497170138 H
   0.5607063604981513    0.6199621334198097    0.0685778631909635 H
   0.5607063611443051    0.6199621334198097    0.1715630126733361 H
   0.6266583568800024    0.6199621334198097    0.1984891268033307 H
   0.6704943998878199    0.6199621334198097    0.3700704384781976 H
   0.6266583558959667    0.6199621334198097    0.2916517497170138 H
   0.5607063604981514    0.6199621334198097    0.3185778631909635 H
   0.5607063611443051    0.6199621334198097    0.4215630126733361 H
   0.6266583568800025    0.6199621334198097    0.4484891268033306 H
   0.6704943998878200    0.6199621334198097    0.6200704384781975 H
   0.6266583558959667    0.6199621334198097    0.5416517497170138 H
   0.5607063604981513    0.6199621334198097    0.5685778631909635 H
   0.5607063611443051    0.6199621334198097    0.6715630126733361 H
   0.6266583568800024    0.6199621334198097    0.6984891268033308 H
   0.6704943998878200    0.6199621334198097    0.8700704384781975 H
   0.6266583558959667    0.6199621334198097    0.7916517497170138 H
   0.5607063604981514    0.6199621334198097    0.8185778631909635 H
   0.5607063611443051    0.6199621334198097    0.9215630126733361 H
   0.6266583568800024    0.6199621334198097    0.9484891268033306 H
   0.6704943998878200    0.8699621334198097    0.1200704384781976 H
   0.6266583558959667    0.8699621334198097    0.0416517497170138 H
   0.5607063604981513    0.8699621334198097    0.0685778631909635 H
   0.5607063611443051    0.8699621334198097    0.1715630126733361 H
   0.6266583568800024    0.8699621334198097    0.1984891268033307 H
   0.6704943998878199    0.8699621334198097    0.3700704384781976 H
   0.6266583558959667    0.8699621334198097    0.2916517497170138 H
   0.5607063604981514    0.8699621334198097    0.3185778631909635 H
   0.5607063611443051    0.8699621334198097    0.4215630126733361 H
   0.6266583568800025    0.8699621334198097    0.4484891268033306 H
   0.6704943998878200    0.8699621334198097    0.6200704384781975 H
   0.6266583558959667    0.8699621334198097    0.5416517497170138 H
   0.5607063604981513    0.8699621334198097    0.5685778631909635 H
   0.5607063611443051    0.8699621334198097    0.6715630126733361 H
   0.6266583568800024    0.8699621334198097    0.6984891268033308 H
   0.6704943998878200    0.8699621334198097    0.8700704384781975 H
   0.6266583558959667    0.8699621334198097    0.7916517497170138 H
   0.5607063604981514    0.8699621334198097    0.8185778631909635 H
   0.5607063611443051    0.8699621334198097    0.9215630126733361 H
   0.6266583568800024    0.8699621334198097    0.9484891268033306 H
   0.9204943998878199    0.1199621334198097    0.1200704384781975 H
   0.8766583558959667    0.1199621334198097    0.0416517497170138 H
   0.8107063604981514    0.1199621334198097    0.0685778631909635 H
   0.8107063611443051    0.1199621334198097    0.1715630126733361 H
   0.8766583568800025    0.1199621334198097    0.1984891268033307 H
   0.9204943998878200    0.1199621334198097    0.3700704384781975 H
   0.8766583558959667    0.1199621334198097    0.2916517497170138 H
   0.8107063604981513    0.1199621334198097    0.3185778631909635 H
   0.8107063611443051    0.1199621334198097    0.4215630126733361 H
   0.8766583568800024    0.1199621334198097    0.4484891268033307 H
   0.9204943998878201    0.1199621334198097    0.6200704384781975 H
   0.8766583558959669    0.1199621334198097    0.5416517497170138 H
   0.8107063604981514    0.1199621334198097    0.5685778631909635 H
   0.8107063611443052    0.1199621334198097    0.6715630126733361 H
   0.8766583568800026    0.1199621334198097    0.6984891268033306 H
   0.9204943998878201    0.1199621334198097    0.8700704384781975 H
   0.8766583558959667    0.1199621334198097    0.7916517497170138 H
   0.8107063604981514    0.1199621334198097    0.8185778631909635 H
   0.8107063611443051    0.1199621334198097    0.9215630126733361 H
   0.8766583568800025    0.1199621334198097    0.9484891268033308 H
   0.9204943998878199    0.3699621334198097    0.1200704384781975 H
   0.8766583558959667    0.3699621334198097    0.0416517497170138 H
   0.8107063604981514    0.3699621334198097    0.0685778631909635 H
   0.8107063611443051    0.3699621334198097    0.1715630126733361 H
   0.8766583568800025    0.3699621334198097    0.1984891268033307 H
   0.9204943998878200    0.3699621334198097    0.3700704384781975 H
   0.8766583558959667    0.3699621334198097    0.2916517497170138 H
   0.8107063604981513    0.3699621334198097    0.3185778631909635 H
   0.8107063611443051    0.3699621334198097    0.4215630126733361 H
   0.8766583568800024    0.3699621334198097    0.4484891268033307 H
   0.9204943998878201    0.3699621334198097    0.6200704384781975 H
   0.8766583558959669    0.3699621334198097    0.5416517497170138 H
   0.8107063604981514    0.3699621334198097    0.5685778631909635 H
   0.8107063611443052    0.3699621334198097    0.6715630126733361 H
   0.8766583568800026    0.3699621334198097    0.6984891268033306 H
   0.9204943998878201    0.3699621334198097    0.8700704384781975 H
   0.8766583558959667    0.3699621334198097    0.7916517497170138 H
   0.8107063604981514    0.3699621334198097    0.8185778631909635 H
   0.8107063611443051    0.3699621334198097    0.9215630126733361 H
   0.8766583568800025    0.3699621334198097    0.9484891268033308 H
   0.9204943998878199    0.6199621334198097    0.1200704384781975 H
   0.8766583558959667    0.6199621334198097    0.0416517497170138 H
   0.8107063604981514    0.6199621334198097    0.0685778631909635 H
   0.8107063611443051    0.6199621334198097    0.1715630126733361 H
   0.8766583568800025    0.6199621334198097    0.1984891268033307 H
   0.9204943998878200    0.6199621334198097    0.3700704384781975 H
   0.8766583558959667    0.6199621334198097    0.2916517497170138 H
   0.8107063604981513    0.6199621334198097    0.3185778631909635 H
   0.8107063611443051    0.6199621334198097    0.4215630126733361 H
   0.8766583568800024    0.6199621334198097    0.4484891268033307 H
   0.9204943998878201    0.6199621334198097    0.6200704384781975 H
   0.8766583558959669    0.6199621334198097    0.5416517497170138 H
   0.8107063604981514    0.6199621334198097    0.5685778631909635 H
   0.8107063611443052    0.6199621334198097    0.6715630126733361 H
   0.8766583568800026    0.6199621334198097    0.6984891268033306 H
   0.9204943998878201    0.6199621334198097    0.8700704384781975 H
   0.8766583558959667    0.6199621334198097    0.7916517497170138 H
   0.8107063604981514    0.6199621334198097    0.8185778631909635 H
   0.8107063611443051    0.6199621334198097    0.9215630126733361 H
   0.8766583568800025    0.6199621334198097    0.9484891268033308 H
   0.9204943998878199    0.8699621334198097    0.1200704384781975 H
   0.8766583558959667    0.8699621334198097    0.0416517497170138 H
   0.8107063604981514    0.8699621334198097    0.0685778631909635 H
   0.8107063611443051    0.8699621334198097    0.1715630126733361 H
   0.8766583568800025    0.8699621334198097    0.1984891268033307 H
   0.9204943998878200    0.8699621334198097    0.3700704384781975 H
   0.8766583558959667    0.8699621334198097    0.2916517497170138 H
   0.8107063604981513    0.8699621334198097    0.3185778631909635 H
   0.8107063611443051    0.8699621334198097    0.4215630126733361 H
   0.8766583568800024    0.8699621334198097    0.4484891268033307 H
   0.9204943998878201    0.8699621334198097    0.6200704384781975 H
   0.8766583558959669    0.8699621334198097    0.5416517497170138 H
   0.8107063604981514    0.8699621334198097    0.5685778631909635 H
   0.8107063611443052    0.8699621334198097    0.6715630126733361 H
   0.8766583568800026    0.8699621334198097    0.6984891268033306 H
   0.9204943998878201    0.8699621334198097    0.8700704384781975 H
   0.8766583558959667    0.8699621334198097    0.7916517497170138 H
   0.8107063604981514    0.8699621334198097    0.8185778631909635 H
   0.8107063611443051    0.8699621334198097    0.9215630126733361 H
   0.8766583568800025    0.8699621334198097    0.9484891268033308 H
   0.2273984554185721    0.0000000000000000    0.0000000011310014 Pb
   0.2273984554185721    0.0000000000000000    0.2500000011310013 Pb
   0.2273984554185721    0.0000000000000000    0.5000000011310013 Pb
   0.2273984554185721    0.0000000000000000    0.7500000011310013 Pb
   0.2273984554185721    0.2500000000000000    0.0000000011310014 Pb
   0.2273984554185721    0.2500000000000000    0.2500000011310013 Pb
   0.2273984554185721    0.2500000000000000    0.5000000011310013 Pb
   0.2273984554185721    0.2500000000000000    0.7500000011310013 Pb
   0.2273984554185721    0.5000000000000000    0.0000000011310014 Pb
   0.2273984554185721    0.5000000000000000    0.2500000011310013 Pb
   0.2273984554185721    0.5000000000000000    0.5000000011310013 Pb
   0.2273984554185721    0.5000000000000000    0.7500000011310013 Pb
   0.2273984554185721    0.7500000000000000    0.0000000011310014 Pb
   0.2273984554185721    0.7500000000000000    0.2500000011310013 Pb
   0.2273984554185721    0.7500000000000000    0.5000000011310013 Pb
   0.2273984554185721    0.7500000000000000    0.7500000011310013 Pb
   0.4773984554185721    0.0000000000000000    0.0000000011310014 Pb
   0.4773984554185721    0.0000000000000000    0.2500000011310014 Pb
   0.4773984554185721    0.0000000000000000    0.5000000011310014 Pb
   0.4773984554185721    0.0000000000000000    0.7500000011310014 Pb
   0.4773984554185721    0.2500000000000000    0.0000000011310014 Pb
   0.4773984554185721    0.2500000000000000    0.2500000011310014 Pb
   0.4773984554185721    0.2500000000000000    0.5000000011310014 Pb
   0.4773984554185721    0.2500000000000000    0.7500000011310014 Pb
   0.4773984554185721    0.5000000000000000    0.0000000011310014 Pb
   0.4773984554185721    0.5000000000000000    0.2500000011310014 Pb
   0.4773984554185721    0.5000000000000000    0.5000000011310014 Pb
   0.4773984554185721    0.5000000000000000    0.7500000011310014 Pb
   0.4773984554185721    0.7500000000000000    0.0000000011310014 Pb
   0.4773984554185721    0.7500000000000000    0.2500000011310014 Pb
   0.4773984554185721    0.7500000000000000    0.5000000011310014 Pb
   0.4773984554185721    0.7500000000000000    0.7500000011310014 Pb
   0.7273984554185722    0.0000000000000000    0.0000000011310014 Pb
   0.7273984554185722    0.0000000000000000    0.2500000011310013 Pb
   0.7273984554185722    0.0000000000000000    0.5000000011310014 Pb
   0.7273984554185722    0.0000000000000000    0.7500000011310014 Pb
   0.7273984554185722    0.2500000000000000    0.0000000011310014 Pb
   0.7273984554185722    0.2500000000000000    0.2500000011310013 Pb
   0.7273984554185722    0.2500000000000000    0.5000000011310014 Pb
   0.7273984554185722    0.2500000000000000    0.7500000011310014 Pb
   0.7273984554185722    0.5000000000000000    0.0000000011310014 Pb
   0.7273984554185722    0.5000000000000000    0.2500000011310013 Pb
   0.7273984554185722    0.5000000000000000    0.5000000011310014 Pb
   0.7273984554185722    0.5000000000000000    0.7500000011310014 Pb
   0.7273984554185722    0.7500000000000000    0.0000000011310014 Pb
   0.7273984554185722    0.7500000000000000    0.2500000011310013 Pb
   0.7273984554185722    0.7500000000000000    0.5000000011310014 Pb
   0.7273984554185722    0.7500000000000000    0.7500000011310014 Pb
   0.9773984554185722    0.0000000000000000    0.0000000011310014 Pb
   0.9773984554185722    0.0000000000000000    0.2500000011310014 Pb
   0.9773984554185722    0.0000000000000000    0.5000000011310014 Pb
   0.9773984554185721    0.0000000000000000    0.7500000011310014 Pb
   0.9773984554185722    0.2500000000000000    0.0000000011310014 Pb
   0.9773984554185722    0.2500000000000000    0.2500000011310014 Pb
   0.9773984554185722    0.2500000000000000    0.5000000011310014 Pb
   0.9773984554185721    0.2500000000000000    0.7500000011310014 Pb
   0.9773984554185722    0.5000000000000000    0.0000000011310014 Pb
   0.9773984554185722    0.5000000000000000    0.2500000011310014 Pb
   0.9773984554185722    0.5000000000000000    0.5000000011310014 Pb
   0.9773984554185721    0.5000000000000000    0.7500000011310014 Pb
   0.9773984554185722    0.7500000000000000    0.0000000011310014 Pb
   0.9773984554185722    0.7500000000000000    0.2500000011310014 Pb
   0.9773984554185722    0.7500000000000000    0.5000000011310014 Pb
   0.9773984554185721    0.7500000000000000    0.7500000011310014 Pb
   0.1259717166922073    0.1199621334198097    0.1200701949940500 C
   0.1259717166922073    0.1199621334198097    0.3700701949940500 C
   0.1259717166922073    0.1199621334198097    0.6200701949940499 C
   0.1259717166922073    0.1199621334198097    0.8700701949940500 C
   0.1259717166922073    0.3699621334198097    0.1200701949940500 C
   0.1259717166922073    0.3699621334198097    0.3700701949940500 C
   0.1259717166922073    0.3699621334198097    0.6200701949940499 C
   0.1259717166922073    0.3699621334198097    0.8700701949940500 C
   0.1259717166922073    0.6199621334198097    0.1200701949940500 C
   0.1259717166922073    0.6199621334198097    0.3700701949940500 C
   0.1259717166922073    0.6199621334198097    0.6200701949940499 C
   0.1259717166922073    0.6199621334198097    0.8700701949940500 C
   0.1259717166922073    0.8699621334198097    0.1200701949940500 C
   0.1259717166922073    0.8699621334198097    0.3700701949940500 C
   0.1259717166922073    0.8699621334198097    0.6200701949940499 C
   0.1259717166922073    0.8699621334198097    0.8700701949940500 C
   0.3759717166922073    0.1199621334198097    0.1200701949940500 C
   0.3759717166922074    0.1199621334198097    0.3700701949940500 C
   0.3759717166922073    0.1199621334198097    0.6200701949940499 C
   0.3759717166922074    0.1199621334198097    0.8700701949940500 C
   0.3759717166922073    0.3699621334198097    0.1200701949940500 C
   0.3759717166922074    0.3699621334198097    0.3700701949940500 C
   0.3759717166922073    0.3699621334198097    0.6200701949940499 C
   0.3759717166922074    0.3699621334198097    0.8700701949940500 C
   0.3759717166922073    0.6199621334198097    0.1200701949940500 C
   0.3759717166922074    0.6199621334198097    0.3700701949940500 C
   0.3759717166922073    0.6199621334198097    0.6200701949940499 C
   0.3759717166922074    0.6199621334198097    0.8700701949940500 C
   0.3759717166922073    0.8699621334198097    0.1200701949940500 C
   0.3759717166922074    0.8699621334198097    0.3700701949940500 C
   0.3759717166922073    0.8699621334198097    0.6200701949940499 C
   0.3759717166922074    0.8699621334198097    0.8700701949940500 C
   0.6259717166922073    0.1199621334198097    0.1200701949940500 C
   0.6259717166922074    0.1199621334198097    0.3700701949940500 C
   0.6259717166922073    0.1199621334198097    0.6200701949940500 C
   0.6259717166922074    0.1199621334198097    0.8700701949940499 C
   0.6259717166922073    0.3699621334198097    0.1200701949940500 C
   0.6259717166922074    0.3699621334198097    0.3700701949940500 C
   0.6259717166922073    0.3699621334198097    0.6200701949940500 C
   0.6259717166922074    0.3699621334198097    0.8700701949940499 C
   0.6259717166922073    0.6199621334198097    0.1200701949940500 C
   0.6259717166922074    0.6199621334198097    0.3700701949940500 C
   0.6259717166922073    0.6199621334198097    0.6200701949940500 C
   0.6259717166922074    0.6199621334198097    0.8700701949940499 C
   0.6259717166922073    0.8699621334198097    0.1200701949940500 C
   0.6259717166922074    0.8699621334198097    0.3700701949940500 C
   0.6259717166922073    0.8699621334198097    0.6200701949940500 C
   0.6259717166922074    0.8699621334198097    0.8700701949940499 C
   0.8759717166922074    0.1199621334198097    0.1200701949940500 C
   0.8759717166922073    0.1199621334198097    0.3700701949940499 C
   0.8759717166922074    0.1199621334198097    0.6200701949940499 C
   0.8759717166922074    0.1199621334198097    0.8700701949940500 C