 H Pb  C  I Br  N                       
   1.00000000000000     
    24.8706342423675935    0.0000000000000000    0.0000000000000000
     0.0000000000000016   25.3424933063235613    0.0000000000000000
    -0.0000033652471358    0.0000000000000016   25.5405473895976556
  H               Pb              C               I               Br              N             
   320    64    64   176    16   128
Direct
  0.1406557179495478  0.1431000322132998  0.0916255317423370
  0.1063934031977517  0.0592771795129430  0.0710062602772010
  0.0611985780557303  0.0598987974301169  0.1233860051900579
  0.0593829704696729  0.1405167418603378  0.1790345661514785
  0.1050738751435587  0.1905267793011620  0.1633794214448987
  0.1680228484158678  0.1298163510496525  0.3794854938951001
  0.1379461880436262  0.1269071948437427  0.2936396298780444
  0.0710396817303801  0.1126877723286520  0.3109674557445236
  0.0568450204652444  0.0950281390353196  0.4083266486836965
  0.1130644872890090  0.1082806601656643  0.4482683555771416
  0.1512568494628413  0.1205587425618797  0.6603009662775786
  0.1370354600533205  0.1880937818814051  0.6010363317104510
  0.0775952930341142  0.1582628344650087  0.5752837233950746
  0.0510528017721995  0.0729433069927526  0.6151207493742114
  0.0923277154760559  0.0490216528379349  0.6657147734488034
  0.1726483784887486  0.1213909454178857  0.8792283894791967
  0.1342273769573009  0.1148227130922781  0.7981814628169467
  0.0675845216561480  0.1142945662467095  0.8215101812738496
  0.0604562685946535  0.1214519924079338  0.9229104617883210
  0.1227960483264545  0.1265670427645057  0.9546070025735640
  0.1196962842328027  0.4159707146404390  0.0782479618669457
  0.0414093951922109  0.3659285891764337  0.0752276877892035
  0.0605746159548719  0.3252937168030405  0.1275245107897936
  0.1505062332161627  0.3451456360749783  0.1674688176940078
  0.1865229972926137  0.3979661860406364  0.1389573137973221
  0.1090844180130804  0.4167086381734080  0.3387187589618844
  0.0325837862565078  0.3665073772940269  0.3196954150290628
  0.0428426163449647  0.3230446070215940  0.3719022721767138
  0.1244352581477571  0.3411177658366717  0.4281772069754258
  0.1640929758836061  0.3956431507733568  0.4083144056836839
  0.1502388755078234  0.4126295268588162  0.6245219768975105
  0.0905874830831972  0.4198126331504466  0.5548088265256637
  0.0533126394207279  0.3639233065925156  0.5739656380217566
  0.0841756517696193  0.3187157458371493  0.6553396222719752
  0.1416423680118876  0.3463350499497922  0.6860843555207200
  0.1533071207483265  0.3760840707442917  0.9001056390539566
  0.1335193465225693  0.4271346623710945  0.8275095231981405
  0.0776099409170973  0.3881610757758117  0.8091465524282653
  0.0586150888562320  0.3100185789084063  0.8678473128997911
  0.1009480913693178  0.3028630455338571  0.9219541533801106
  0.1506337194304680  0.6276984753392738  0.1483554536280749
  0.1252568447433586  0.6821677168043127  0.0805697843385733
  0.0696287565633796  0.6422424654271272  0.0622963335210804
  0.0563917011408919  0.5603847019387230  0.1171439816327089
  0.1027423052057468  0.5506476747347608  0.1675231823790286
  0.1385905585967966  0.6580529155986801  0.3696091328656376
  0.1462665134317479  0.5963242893604418  0.3021681213187499
  0.0912451147380053  0.5589275576632696  0.3252308623470433
  0.0440487019586329  0.5930193195895592  0.4029004271136536
  0.0710357220603378  0.6506240018647268  0.4320823364661221
  0.1128362649873163  0.6694732818298492  0.6473359717257731
  0.1666789291029254  0.6457017706578484  0.5778658805154641
  0.1268008998018558  0.5903873634040294  0.5607535751020568
  0.0453930220101822  0.5753162393095204  0.6184459754260886
  0.0365120247713568  0.6205188134498190  0.6694955079496953
  0.1520975728238576  0.6614421350494026  0.8670495410168777
  0.0920964891578391  0.6558334661201811  0.7976162258616006
  0.0562268180398646  0.6028587876265318  0.8260878983337533
  0.0895316783498594  0.5707032847271805  0.9115874209458988
  0.1451401049999092  0.6045104609094126  0.9383511421854607
  0.1517202614398505  0.9064645200750724  0.1429731582709501
  0.1069227861555943  0.9233862930743039  0.0640159146734600
  0.0603513319212410  0.8727991365727766  0.0731803061912672
  0.0704913751093218  0.8196686753688383  0.1561201642551556
  0.1236091204353950  0.8393666223844644  0.1979008869220788
  0.1443956931746251  0.8827176881319184  0.4063344567674806
  0.1281708725957005  0.9442507671219532  0.3411393301857061
  0.0727666948600852  0.9084885485006658  0.3153432211810697
  0.0493693677711346  0.8252872364017320  0.3615638114064132
  0.0904780085406644  0.8074152759295071  0.4144051322144695
  0.1452264341359715  0.9101636008570289  0.6207476509406342
  0.1476134128035662  0.8476470134217662  0.5538389926112269
  0.0925705150855902  0.8121484042953772  0.5799369838727095
  0.0506348535764615  0.8482268949624473  0.6594649657537848
  0.0808463266085065  0.9055204265689841  0.6865612243580876
  0.1527655959000730  0.8428245661561828  0.8840355186556973
  0.1071243586304322  0.8160391429915660  0.8089869101374755
  0.0599951677368183  0.8671680322800038  0.8122019957993007
  0.0721669979985611  0.9313884028157956  0.8881988996361835
  0.1254703182382463  0.9162347890276652  0.9309094717866954
  0.4216747240671494  0.1209151747804551  0.1187070104051351
  0.3762858835265062  0.1313637061638875  0.0416202069010503
  0.3121797413467221  0.1340643401581318  0.0709696675052311
  0.3140467367625207  0.1262366480012735  0.1721432090936763
  0.3792267050933086  0.1192896294753130  0.1983157366982925
  0.4001305256584030  0.0905710479414503  0.3565634839833519
  0.3719617535512013  0.1664196249617431  0.3129709500404007
  0.3159474417985745  0.1760410868376081  0.3535848575804885
  0.3044464229099066  0.1095147789906701  0.4263121357955078
  0.3522148877867043  0.0589152561000278  0.4291439636582139
  0.3934204698449408  0.1589650432281028  0.6223078359378652
  0.3259867781518601  0.1557005416926278  0.5598210389679456
  0.2951198490865460  0.0996261892670461  0.5885971753645280
  0.3393757242366636  0.0635722508510284  0.6674282479360879
  0.3971852644747130  0.0972619900675071  0.6897775564889003
  0.4074523396897363  0.1499591296152945  0.8789928878348040
  0.3606008045479165  0.1739032603383746  0.8028667162289700
  0.3132036589643539  0.1236541379735832  0.8099380324648902
  0.3246837550918453  0.0636406545333007  0.8874535392881278
  0.3795149569482902  0.0778456717043001  0.9286502166665033
  0.3881941922800733  0.4196963312800062  0.0993575877970183
  0.3148573926384715  0.3891953815954929  0.0509675428673455
  0.3033214715298913  0.3352244460387864  0.0926710406667816
  0.3645756844613614  0.3278715761955745  0.1703988314202308
  0.4153171318803849  0.3751701108416053  0.1753615596055660
  0.4026317243093080  0.3883149553515070  0.3895038164085998
  0.3673392163588314  0.4212513250884949  0.3110160916700498
  0.3166836203201311  0.3738171968086293  0.3074839824319743
  0.3134955071908057  0.3082591785023250  0.3822580808275044
  0.3632833277278415  0.3151518793080038  0.4300251019037775
  0.4251070376872373  0.3745779214747548  0.6201480272823848
  0.3846822837249303  0.3776267404878167  0.5394211998807197
  0.3188333294876336  0.3832021711874781  0.5643593268954544
  0.3142512941325643  0.3844949930940952  0.6659550160047404
  0.3774743728510904  0.3793328085487088  0.6964376007441940
  0.3947201769114814  0.4011900051207782  0.8501061909855987
  0.3733963821929301  0.3267462985570546  0.8017343921221691
  0.3208754414622762  0.3075117460258120  0.8443480368777112
  0.3056358529214568  0.3660458656607916  0.9217021730765843
  0.3478367842905710  0.4207942368657582  0.9277183339056692
  0.4015782153416799  0.6446560783982302  0.1384665537139171
  0.3649428978054415  0.6898585351777008  0.0668174963647961
  0.3134080193609484  0.6437589592777953  0.0580350843126465
  0.3114865047176931  0.5673103078620670  0.1209488833413837
  0.3620173675273117  0.5661524937643682  0.1681518919859991
  0.3580874938357180  0.6650177047229789  0.3271587980586269
  0.2867263061962711  0.6059920699525146  0.3181608347775728
  0.3054845435956772  0.5694647694518638  0.3738907513456297
  0.3868867284528140  0.5998688096344260  0.4211382139906903
  0.4191383716709838  0.6567433719990500  0.3950515657653917
  0.3941798638100973  0.6610355456129415  0.6165808799014342
  0.3304638259421834  0.6523948122572073  0.5505658358154594
  0.3020132443386621  0.5950776928087405  0.5790486988481156
  0.3438074843773425  0.5632540292412384  0.6606976770064615
  0.3984600337528291  0.6007245624416343  0.6848774402961851
  0.3985459102431281  0.6286554203888643  0.9028401186500913
  0.3868060681734262  0.6815627494780845  0.8304354562504545
  0.3311444475015887  0.6444166447895493  0.8065172199393605
  0.3058441940865443  0.5654541034249131  0.8611074691084496
  0.3440834343535432  0.5556776492597234  0.9179204353244748
  0.3925659886203395  0.8291970167057434  0.1235024314171168
  0.3320659444999498  0.8344055047286254  0.0541392944681980
  0.2979885719106653  0.8891896926518589  0.0815803924690252
  0.3334758826295457  0.9235761172359170  0.1651833520888993
  0.3889680587990078  0.8897201943488945  0.1922310892450221
  0.3928377114189426  0.9187947892708082  0.3723946710641309
  0.3252132061049572  0.9145132631781959  0.3103532651498456
  0.3000747436119944  0.8535601986491123  0.3342050390610556
  0.3496916373864671  0.8145860112901631  0.4089650474564818
  0.4039291444827565  0.8518183136975467  0.4339582010175552
  0.3996996553482615  0.8759629480921314  0.5820565548361601
  0.3361330751045860  0.8085568498705354  0.5719160599945761
  0.2985384296259957  0.8296961986828457  0.6265562744371578
  0.3338531888748018  0.9053933231675749  0.6759237231254540
  0.3930187369363732  0.9354923494704638  0.6507384658441802
  0.4045063722732496  0.9021037238272170  0.8608748342819086
  0.3865139215912083  0.8327361001742455  0.8050056466916888
  0.3265310215371559  0.8147687526055383  0.8380434171493797
  0.3018133609403362  0.8709979591135445  0.9148488541905353
  0.3464680811225166  0.9219901330103114  0.9305324594682787
  0.6704837260523832  0.1126808551427616  0.1186720163271782
  0.6341847391981669  0.1391966993189006  0.0394468740299388
  0.5760524861493381  0.1663328624450200  0.0690510268301022
  0.5724416223567234  0.1628539356320995  0.1652618663187048
  0.6280962451946193  0.1330714076556962  0.1970187323776542
  0.6455817210233643  0.1540031402493329  0.3597747689960085
  0.6226156734351396  0.0823085559799318  0.3077539417788714
  0.5680537129163247  0.0640128565082398  0.3481072723960581
  0.5533265582839147  0.1196489187256684  0.4277053619356232
  0.5966144150848092  0.1735456889214884  0.4356653878875884
  0.6533403176554186  0.1301062957583133  0.6518822047546633
  0.6243123011883998  0.1834341542948538  0.5844361259019073
  0.5690330988829081  0.1423224228978153  0.5687316734757277
  0.5584967813242709  0.0616257822943876  0.6248376993166819
  0.6061245213290511  0.0529740160938700  0.6744545615317874
  0.6519512559381037  0.1599070496499199  0.8844525150114412
  0.5900618137986612  0.1772329130763936  0.8184250913935613
  0.5540147207730025  0.1185817105482224  0.8292091135409924
  0.5890055172217705  0.0602670490173964  0.9008773647148540
  0.6469684641553796  0.0841719557648833  0.9339408508402035
  0.6710924667918607  0.3644301103592983  0.1312223337818343
  0.6523644952686557  0.3789072272623518  0.0436002475552221
  0.5833361155695489  0.3629565825997309  0.0501764829913394
  0.5573930038219925  0.3261880127959274  0.1385186764188666
  0.6064686123264642  0.3295178284695174  0.1871515275582846
  0.6729685372699302  0.3700836291832110  0.3691192631448676
  0.6300667758067574  0.3929468836472245  0.2924641817795763
  0.5688681019709627  0.4089283736645342  0.3241284606235079
  0.5688680470070907  0.3969938395293073  0.4221553876909693
  0.6305036867836515  0.3756138607460945  0.4490543163864808
  0.6479914235742814  0.4143808788345522  0.6216798740231183
  0.5795190357749330  0.4213769632382468  0.5601983252721269
  0.5496593663333608  0.3608875429787525  0.5791979710342769
  0.5948096482842835  0.3122155886534859  0.6500614579188414
  0.6531468272550393  0.3420362395155778  0.6770343924625062
  0.6063768153919202  0.4331329550785014  0.8689482843064390
  0.5237706879153630  0.3939096130033766  0.8663602116072303
  0.5485886926873632  0.3289681390896842  0.8723296347256017
  0.6517985220543610  0.3240533867933807  0.8804700157690315
  0.6843795709437496  0.3858285482488514  0.8772735298628790
  0.6124324365786619  0.6741760095537569  0.0835885952571087
  0.5372011713965853  0.6218712661813082  0.0660595077368559
  0.5519879182941754  0.5765615083662231  0.1156432733996558
  0.6364122375024892  0.5935648386005442  0.1665146504035118
  0.6724630118903717  0.6513879450240314  0.1493979793901557
  0.6597494773603358  0.6180222377461043  0.3811247617520587
  0.6462528030405023  0.6283593067623312  0.2916063196374679
  0.5767032795096954  0.6142785091970376  0.2954783472743318
  0.5462911004225436  0.5786528070757966  0.3831065592224296
  0.5918039714072493  0.5852665590255715  0.4344273959558352
  0.6852737955902726  0.6260695571240971  0.6262825169245536
  0.6377888536795898  0.6301204745252731  0.5491682758516523
  0.5745640567715247  0.6275261144234766  0.5790311710975028
  0.5781997932774463  0.6224930249055661  0.6809976420972229
  0.6439699163025415  0.6219195064282008  0.7063462001825414
  0.6148286825159982  0.6740286400216929  0.8743818985182276
  0.5249559407486798  0.6567770035225025  0.8564201108518890
  0.5318563279736918  0.5883657990929086  0.8683716285655131
  0.6212240785297936  0.5594608231955355  0.9034280698876052
  0.6709757591833995  0.6076731871444528  0.9071081367939792
  0.6221284153349442  0.9179333663314655  0.1052226630165846
  0.5485469669478713  0.8816298630365064  0.0611524614378134
  0.5426479623249136  0.8284700368155318  0.1042327320672344
  0.6108078284294030  0.8245588581438824  0.1777817382999270
  0.6583188200297011  0.8750213603839538  0.1792081056254679
  0.6517735671247616  0.8810752218465221  0.3871950875006840
  0.6191696293903568  0.9349294005893325  0.3213964563932346
  0.5659898465308014  0.8920097938642292  0.3051287950745484
  0.5603515447788492  0.8085951407830708  0.3589939940654150
  0.6095625074256307  0.8004266738688520  0.4067501190364212
  0.6520224673158712  0.9201112065154201  0.6359532179834608
  0.5905462852597201  0.9304145981394236  0.5678600548657440
  0.5562869041261811  0.8716292937370890  0.5830715696743376
  0.5932911073750222  0.8189601815028160  0.6569596418664914
  0.6496274062850382  0.8467807823378266  0.6897542364479188
  0.6881535521652655  0.8729683608043166  0.8802951075604935
  0.6429169543511954  0.8729931507284021  0.8024875506195849
  0.5785617134883484  0.8758434976865539  0.8307728389845823
  0.5797374308967671  0.8785005315528643  0.9325331053946307
  0.6448790576238898  0.8772715251520525  0.9596783263023710
  0.8960048335254605  0.1689351770675358  0.1182854736428811
  0.8896549231918405  0.1042141427761079  0.0538687360129702
  0.8367615498868592  0.0708390539601777  0.0867269514384561
  0.8070901664165253  0.1090858152415318  0.1708410761832153
  0.8409129535751242  0.1667275338295451  0.1917195716874747
  0.9071802464500206  0.1232650507427509  0.3373896167366508
  0.8443027689752528  0.1901883964484977  0.3231761455654799
  0.8047752151738948  0.1716810506068437  0.3770994718592484
  0.8379281722845952  0.0953969777742025  0.4295051050661755
  0.8977971932997124  0.0651624333328998  0.4065901078900915
  0.8890172352121083  0.1645257902325689  0.6238554282339803
  0.8256100746257256  0.1505187101024518  0.5591808867586069
  0.8020364048571941  0.0911890584740414  0.5881021204866317
  0.8479923528374642  0.0633005774671789  0.6700368451243736
  0.8989765475367529  0.1051216460995218  0.6931098179071701
  0.9071799733754533  0.1331386927282805  0.8967698657695075
  0.8712218582037311  0.1794690519614324  0.8262648024962814
  0.8178421758227398  0.1351716636672712  0.8173505103675200
  0.8156537004519775  0.0572419081738897  0.8794155704093166
  0.8662986057545853  0.0554524945549570  0.9266074255827528
  0.9031576529672262  0.3821090136895220  0.1509616141501413
  0.8781537584112052  0.4326619715803749  0.0798685428529098
  0.8230858584146526  0.3918587652796812  0.0633114828738089
  0.8088857772961470  0.3131101575603266  0.1227016992559806
  0.8550944959967967  0.3059619221908333  0.1735180835711279
  0.9186594225984231  0.3701360444304956  0.3739414916972155
  0.8758891783458815  0.3686810549818366  0.2945988671292962
  0.8109962157469351  0.3605951713089722  0.3217011746237689
  0.8098478312215047  0.3567092406502051  0.4227433542094748
  0.8741450288976530  0.3628264870873686  0.4514495200733787
  0.9100657302668960  0.3764669812352891  0.5805510000116864
  0.8448184635484566  0.4409414845813665  0.5658981923090431
  0.8077204171321790  0.4237905805448793  0.6217441280053906
  0.8442613384842548  0.3490694318651105  0.6752185611251170
  0.9045489358599181  0.3204437484854801  0.6518937726001964
  0.8993668603086966  0.4120109836331408  0.8712605099424749
  0.8424058443718293  0.4016067652909560  0.7996739125516363
  0.8107615694812741  0.3454416285939620  0.8272364574726866
  0.8425341200228851  0.3171788847166868  0.9144871744673453
  0.8949271510845322  0.3549355128784191  0.9422721601922954
  0.9014288524251883  0.6692336971996703  0.1249559354027924
  0.8361953289041191  0.6682341914844052  0.0601302111267173
  0.8069865935804741  0.6088164409569087  0.0833834691095017
  0.8511311239530208  0.5676576912603007  0.1602332746763465
  0.9061204689875307  0.6023366271179014  0.1872463230731821
  0.9040301463044323  0.6300326298671882  0.3398835868319493
  0.8559293697898938  0.5528564729895477  0.3211658596105407
  0.8085513576864146  0.5637286706692415  0.3703473534052490
  0.8215896531169797  0.6468274704703258  0.4241639236124268
  0.8774206394694860  0.6860473761719450  0.4058849974320989
  0.8893357090211511  0.6694542490722517  0.6172870679011924
  0.8232594011129031  0.6478467015381668  0.5576283851204783
  0.8037335462761307  0.5901381981955336  0.5917121110252650
  0.8563236820113304  0.5704279318137907  0.6735952823828034
  0.9066883299547082  0.6159081074136514  0.6899685848401307
  0.9033487377249636  0.6208490753045038  0.9015290668266356
  0.8817730078811409  0.6836113979689027  0.8400115934734623
  0.8286844932902980  0.6453687555162448  0.8127259464804543
  0.8140056077714224  0.5570633714188267  0.8541422732328029
  0.8549303468307903  0.5417275041195652  0.9077947055730000
  0.9076241982840116  0.8730999850661583  0.1593967129088907
  0.8819890104885763  0.9332400712642762  0.0956807926015919
  0.8262964134401853  0.8951467891093856  0.0754275497439630
  0.8125214168251402  0.8097129131558376  0.1231651081830342
  0.8581168466526043  0.7955363678757249  0.1732549116837231
  0.9005534365082024  0.9170428998634202  0.3908162093320996
  0.8413175178647664  0.9325669597946373  0.3216332353548665
  0.8039802511550285  0.8750590516266296  0.3338436577687037
  0.8347799729439985  0.8196045081677132  0.4088163280491129
  0.8916519063566417  0.8438908028781653  0.4436672261747903
  0.8567890522819396  0.9225711793680570  0.5927289673115455
  0.7784468207931952  0.8748340310725563  0.5756595660833775
  0.7928864708793942  0.8259938218225930  0.6218059177285138
  0.8803983175780288  0.8373135497179980  0.6712515408423537
  0.9182790419497333  0.8939706302212003  0.6540366801454379
  0.9051916427844167  0.9170138150144220  0.8741905680020564
  0.8991014056111186  0.8569058918730529  0.8056627023793511
  0.8440334976540066  0.8232769518044967  0.8345499803172487
  0.8141874903512160  0.8555280456515818  0.9210807853302689
  0.8479760090346127  0.9115686467662658  0.9459530953273676
  0.2307213040101435  0.9977356567396606  0.9957490320848209
  0.2277019539563436  0.9986269582445535  0.2443088170371532
  0.2267099189878011  0.9934552571111328  0.4943502949345397
  0.2338097487978499  0.9913611770106213  0.7450451393205398
  0.2310507878552179  0.2465490751234332  0.9946020784650818
  0.2307441390801415  0.2518707762872153  0.2455713886498775
  0.2264676111710552  0.2476630586229256  0.5059199334825212
  0.2316943286160147  0.2460718354703422  0.7408151889842406
  0.2259195074269304  0.4963105859504065  0.9911113821673594
  0.2334159983050941  0.4868005945008744  0.2438733676038957
  0.2345172969472362  0.4969709355343291  0.4920347057452367
  0.2338044535433798  0.4989827516796616  0.7414630572558882
  0.2251483143294080  0.7479230081145716  0.9908436246966109
  0.2308671520776153  0.7466675458928276  0.2399199149948671
  0.2330361942879723  0.7431601833723800  0.4858100100874811
  0.2382141970196529  0.7446904806462217  0.7368948507967830
  0.4854501094521607  0.9984309126184799  0.9999415025421841
  0.4797739040649174  0.9983959617288686  0.2304615473411308
  0.4795417958156528  0.9983708987433619  0.4936502392549017
  0.4854611846103266  0.9942217965718886  0.7504105546545639
  0.4821345643208083  0.2488358805224238  0.9913786074488383
  0.4828305025013686  0.2467976349656713  0.2493655278012437
  0.4799249773288122  0.2461871886512197  0.4939070602073383
  0.4850782568933319  0.2472346491913459  0.7412886852967184
  0.4855965099178211  0.4947358515699800  0.9960176724215811
  0.4867475673512134  0.4976563480961125  0.2453095551988425
  0.4738636495591166  0.4995353281883950  0.5083852845081970
  0.4817559217102557  0.4942485115964035  0.7384295474157342
  0.4805535703668216  0.7463771951061841  0.9845822507341270
  0.4781332752201514  0.7451916828770027  0.2441638730200683
  0.4892546509364296  0.7472009103395882  0.4998056322760828
  0.4868764492028346  0.7473708041712466  0.7461327366876818
  0.7355814873369808  0.9978467609692635  0.9999083578422726
  0.7328963098218614  0.9976480950670729  0.2461011634932745
  0.7275674470819785  0.9995652764176477  0.4897627015724668
  0.7394580689270054  0.9975775761539899  0.7479492837032231
  0.7364593121732083  0.2523719088396332  0.9957817203321283
  0.7293017965573783  0.2504524625814340  0.2470501350361987
  0.7330726879907195  0.2474463585869871  0.4967620655530145
  0.7327666367765252  0.2432142167228574  0.7427848203698387
  0.7393690132376834  0.4947408029810304  0.9967653899864748
  0.7292749609938416  0.5061379073378276  0.2424330577629722
  0.7285306639573363  0.4984035717394552  0.4918565572145073
  0.7286231250760962  0.4928008880280932  0.7447737606983154
  0.7329394839451480  0.7436396766080630  0.9939198539587601
  0.7336481761413917  0.7446748553245502  0.2480655792377920
  0.7282076927069284  0.7533344251313430  0.4964846539512576
  0.7326423190088285  0.7449940091918018  0.7484811783366112
  0.9837263795121874  0.9928007416017086  0.9996370365219174
  0.9784086592090958  0.9942572357019971  0.2493257913085816
  0.9809788409604573  0.9934648041442631  0.5017995896618904
  0.9746802081517912  0.9919816420727136  0.7508461343302163
  0.9737207852261164  0.2465492133448339  0.9981132863671638
  0.9778823741097712  0.2501385467824606  0.2480224357164255
  0.9781081182514956  0.2434618872779866  0.4979272411808731
  0.9841074029827165  0.2448700463522673  0.7479912405615212
  0.9778249786638411  0.4986270461589058  0.9924386481426031
  0.9806429797789052  0.4906980188462409  0.2445635052927117
  0.9791854409640619  0.4990443542019306  0.4954055795733439
  0.9853271487079197  0.4933449157436068  0.7444950346079831
  0.9810315842314479  0.7457774326629377  0.9946891096488178
  0.9850920842226020  0.7425020213385986  0.2493439908182311
  0.9787758743692955  0.7446730812304684  0.4998819679145231
  0.9823034495459633  0.7446060137706850  0.7479617656651271
  0.1083932375145358  0.1260775228213095  0.1157103684432844
  0.1258629196500515  0.1197941273998268  0.3714212609685337
  0.1162096993233764  0.1187093381037265  0.6340546575886201
  0.1286285859770611  0.1198421766393935  0.8764019463895385
  0.1143128851898362  0.3832684943522368  0.1061299868199935
  0.0987536546676544  0.3827484190231596  0.3636063672786809
  0.1174613436235038  0.3838631182103813  0.6205706475204762
  0.1191134062632387  0.3651912237095858  0.8749935518074311
  0.1152830010754307  0.6171661249010345  0.1246639408549306
  0.1101663486147189  0.6250077506734637  0.3674896913976312
  0.1020874222782342  0.6345062005640052  0.6240536478413453
  0.1202856845773174  0.6313727687365662  0.8677896794008657
  0.1167588360052211  0.8823238501842523  0.1318445541224028
  0.1107325488994983  0.8765198337620480  0.3790202615012923
  0.1156714197154728  0.8779863032340827  0.6203887893796839
  0.1178806202772477  0.8657231546544382  0.8704057324019321
  0.3776897730573790  0.1245444076245994  0.1198827129616370
  0.3638674929139274  0.1115259639756154  0.3698994424299017
  0.3628080659118866  0.1278634839045497  0.6246092874544975
  0.3719246303283631  0.1271720038291790  0.8668282170792214
  0.3663129408571457  0.3842149196841488  0.1120972666237642
  0.3673637845738135  0.3693827290216942  0.3715963497313969
  0.3812479851827383  0.3788308420743160  0.6179859191069024
  0.3620410677708432  0.3752313641190761  0.8634203522633584
  0.3656588674188389  0.6290840475276535  0.1188087296156234
  0.3533598970871084  0.6327053034418845  0.3555319517289158
  0.3654958825765965  0.6281607218020576  0.6178364924543980
  0.3663183923732717  0.6192319288719890  0.8748051351695250
  0.3615618142977864  0.8602103537785938  0.1235551122370481
  0.3654457473549225  0.8847257278304610  0.3721871530951255
  0.3661191095477850  0.8725728346395111  0.6098704986907165
  0.3680206018251491  0.8784686655424421  0.8669862803924271
  0.6314789289219134  0.1330915923650716  0.1181172046954324
  0.6114513599856050  0.1289807344856265  0.3710630312537999
  0.6172571419892340  0.1186475376727283  0.6297714433819394
  0.6195988566862801  0.1314885702137432  0.8766711305238841
  0.6303750137910054  0.3570459140077948  0.1163462246596374
  0.6310258099741759  0.3835905306501837  0.3706667309580059
  0.6176241241967525  0.3830224839456866  0.6188471347886589
  0.6039577866816496  0.3899851789910358  0.8721018398523990
  0.6052456791555143  0.6384039712143096  0.1069986509882663
  0.6198707660145231  0.6102776457068880  0.3643161219684004
  0.6412426213277509  0.6256025856814263  0.6278028378122110
  0.5996733374098661  0.6335543643618095  0.8781716666815590
  0.6040193043264260  0.8811985937401613  0.1198192550537602
  0.6160503669065427  0.8685985477993244  0.3650448320075848
  0.6207176944585650  0.8900950834407642  0.6298553133178159
  0.6440851411013098  0.8749362670356765  0.8810143330894711
  0.8661472036699809  0.1370960047895751  0.1222952164857467
  0.8726985889184250  0.1274380773281398  0.3640369943463747
  0.8634118271240213  0.1292916628701901  0.6257747282844290
  0.8708260475228331  0.1182452991549559  0.8771832074731939
  0.8680283560028730  0.3702469512860159  0.1276413259634156
  0.8747654477050482  0.3655440186196045  0.3730657228390046
  0.8763526858203130  0.3805881113497459  0.6081644276551107
  0.8700447418248007  0.3796233151353983  0.8710005368570973
  0.8722501198695815  0.6366628169773160  0.1236909343117343
  0.8681993720550920  0.6200221084425065  0.3631170316328911
  0.8654739499206482  0.6335131605567456  0.6234844729130458
  0.8704653094974280  0.6127796533578187  0.8739261857947626
  0.8720804231877141  0.8648260664169710  0.1351902208026370
  0.8678128075155815  0.8889906143697816  0.3831218399012731
  0.8486764895180258  0.8860602984151577  0.6146862881813434
  0.8744016431128850  0.8858529345321108  0.8754474348316770
  0.2424098469165336  0.9832530387965733  0.1216546311146533
  0.2196888907804060  0.1216824059903489  0.0079869401901984
  0.2132682618989287  0.9997293395909878  0.3706260980312734
  0.1018119458051325  0.0024835548041910  0.2286981218566968
  0.2244885159309404  0.1258880275327590  0.2340246840694027
  0.2437041572755475  0.0089553343720357  0.6229638347301996
  0.1049606163885859  0.9918449046887526  0.5201057623655004
  0.2198643813299454  0.1213925615272507  0.4890309937014799
  0.2330825217774753  0.0092727927699061  0.8736689190972533
  0.1048637528984466  0.9854103383592373  0.7456648555629007
  0.2260946296900015  0.1184410671151820  0.7471140500980046
  0.2453900443392737  0.2495832989755295  0.1170054464273108
  0.1015536975024017  0.2421615914476035  0.0063138348007213
  0.2181829304125777  0.3711959604280626  0.9908133234578127
  0.2338425589572723  0.2418916138784012  0.3688202307728271
  0.1043872337256548  0.2718556716013303  0.2319913319326276
  0.1033612732255066  0.2560554097945169  0.4836746816433145
  0.2298392978837634  0.3725018243718469  0.5106931009002552
  0.2375804770746888  0.2486166331305203  0.8638825143661435
  0.1077016137865309  0.2466308535406731  0.7580143901972315
  0.2309203079388024  0.3710631386558136  0.7333147782185228
  0.2334334060371685  0.4924564126542290  0.1183536329846865
  0.1027145064227664  0.5027431668329870  0.0096853737577107
  0.2349580406867856  0.6218583936839258  0.9910897292508142
  0.2211640155059088  0.4802177123320613  0.3686188993358600
  0.1070742005316725  0.4745112436612665  0.2389301912436046
  0.2235823127724353  0.6152931651361773  0.2391218754770765
  0.2567971540560519  0.5032739018482234  0.6168632067351302
  0.1068372981403361  0.5054657253629782  0.5040870172307187
  0.2310039452383562  0.6198417241584541  0.4721578498960429
  0.2188704957773621  0.4882422702152618  0.8669286687667710
  0.1082075939221387  0.4986107182158130  0.7274114533836628
  0.2390794714601149  0.6217020360067813  0.7598972117290017
  0.2100677223602122  0.7423237500911232  0.1122830347185874
  0.1040298879826628  0.7427121435317897  0.9654767149890302
  0.2162289518995355  0.8736602383392404  0.9869048551119326
  0.2582678268743681  0.7540738660285525  0.3615177249604034