H320 Pb64 C64 I160 Br32 N128            
   1.00000000000000     
    24.7430871272349435    0.0000000000000000    0.0000000234857661
     0.0000000000000000   25.2300143797138361    0.0000000000000000
    -0.0000033448574002    0.0000000000000000   25.4296052307245795
  H               Pb              C               I               Br              N             
   320    64    64   160    32   128
Direct
  0.1543567218531455  0.1623326286253219  0.1261373945272846
  0.0966999128313347  0.1648782073619031  0.0537876010042226
  0.0596990625523624  0.1091610592357750  0.0744670175159015
  0.0894044669749625  0.0674900681919591  0.1588121743691868
  0.1452798812733037  0.0973452774827983  0.1904052070785940
  0.1577095591581359  0.0952674385977916  0.3872502441683122
  0.1012131297266324  0.0594773455939588  0.3231432753145986
  0.0555628993427772  0.1122162073250372  0.3254610427064081
  0.0785188622369243  0.1859208009540110  0.3895728069624928
  0.1379001142225734  0.1761518987267474  0.4264147042158494
  0.1682236317883614  0.1234581242504461  0.6251008638620058
  0.1210587339125482  0.1274958782967917  0.5483472936139488
  0.0568506567115805  0.1267246816909872  0.5781530457327110
  0.0609752919223938  0.1220512983954564  0.6807443391625982
  0.1270665129626820  0.1193752937264254  0.7058550084375659
  0.1498700583611781  0.1512738324425093  0.8937973817091507
  0.0938030178214196  0.1794120829844938  0.8252014168737946
  0.0534074296070448  0.1227278987896865  0.8277418936125710
  0.0795174672936270  0.0539316404405535  0.8944641174831628
  0.1343567753881285  0.0701592954407127  0.9353180852443723
  0.1543292464836628  0.3778948135340722  0.1521667360700919
  0.1249216159938344  0.4286142715644633  0.0821417716478750
  0.0709204091579447  0.3857290006296251  0.0665012674723564
  0.0608758338256885  0.3057594341384130  0.1266255824078321
  0.1092667945734570  0.3000330058428906  0.1761143831271730
  0.1514009123622782  0.4066056117978672  0.3686870070086876
  0.1334800383145483  0.3332343786964143  0.3168476608352160
  0.0786506555424553  0.3121318386035918  0.3560351577716550
  0.0586769120098470  0.3686868565666303  0.4347632814788594
  0.0993949908554241  0.4246228419121452  0.4437512881604078
  0.1547360128408292  0.3689718434352025  0.6613960038204234
  0.1346616806984348  0.4269046543377523  0.5943224299825507
  0.0766738040770915  0.3910507556077272  0.5739456520321892
  0.0572778466713432  0.3073434551588781  0.6255489006504646
  0.1016208810471699  0.2942082576156920  0.6773593671881599
  0.1432373335389535  0.4094214034462916  0.8675603213451695
  0.0739356781470114  0.3976636053655687  0.8072283513062610
  0.0459522296045766  0.3432921008322787  0.8421135259060961
  0.0944796401178243  0.3164819359751269  0.9239427960102157
  0.1518534325104530  0.3544062402433856  0.9401533630810963
  0.1666080958191321  0.6214792528042605  0.1275435401286647
  0.1302513559381945  0.6290633921770845  0.0445291884426683
  0.0659371078084108  0.6063544074188291  0.0628871052774205
  0.0595719375658111  0.5752499785857617  0.1577173229413362
  0.1171456667260398  0.5866733971935030  0.1967677370308266
  0.1524228785968177  0.6376674128032815  0.4046630527305028
  0.1251072872291375  0.6822881442804998  0.3297162759016443
  0.0721498938477789  0.6377445386045104  0.3158337116373022
  0.0629210808993994  0.5611515870985369  0.3798665948003790
  0.1082162400678863  0.5609257721898608  0.4325508480312554
  0.1583007560321792  0.6557355322563043  0.6370220692016617
  0.1030699469741376  0.6880111589137980  0.5696766980941272
  0.0578541171766880  0.6350302001935058  0.5739115856049951
  0.0778701156615903  0.5663265660497392  0.6431507957446937
  0.1366294999801914  0.5780585250259991  0.6809254476631704
  0.1674360352149594  0.6210037074437684  0.8617479572113848
  0.1274037126852204  0.5400546032960720  0.8630794698976276
  0.0606537529240674  0.5640024637618296  0.8632821172344449
  0.0562151577934819  0.6695855015446252  0.8644276411720564
  0.1210382923608004  0.6982744837124165  0.8639920179779372
  0.1556258115535939  0.8617949306213141  0.0782859061915203
  0.0921619109135047  0.7941291149553722  0.0748448547139784
  0.0546392836261041  0.8192564719964373  0.1282412945320621
  0.0898849554920942  0.9021986873446027  0.1689407315448437
  0.1492968099914364  0.9289161777318183  0.1412250568155113
  0.1459759943228622  0.9108963453594634  0.3674586547673576
  0.1427214684120986  0.8551560642600818  0.2942345541464879
  0.0857329874464095  0.8203733538759784  0.3182835079986658
  0.0500859713883884  0.8483646198815837  0.4038235602370874
  0.0843469541160418  0.9007119040157995  0.4360837424330518
  0.1134444201142950  0.9271333634597064  0.6187879467987523
  0.0317268015073460  0.8951146090441319  0.5854296868856810
  0.0376840437579007  0.8337663422735220  0.6167410690785641
  0.1217280613046405  0.8197610801173199  0.6695512170159147
  0.1668398405270037  0.8728873887992528  0.6733647130279439
  0.1756050241775484  0.8697112580071299  0.8750377108111289
  0.1397268562599863  0.8679875620045308  0.7920866107287486
  0.0719033217161201  0.8724764626771263  0.8132460381610416
  0.0619784044279442  0.8799550322460505  0.9151404431980901
  0.1239915522334989  0.8780420132774839  0.9486436193562948
  0.3997979418744613  0.1446987681659633  0.1450379301709672
  0.3541471174664649  0.1706200339224043  0.0686840367699789
  0.3077453259430011  0.1187304415951403  0.0722465000761199
  0.3179526058339101  0.0565721984462217  0.1491563759357723
  0.3714028137884799  0.0707051959239699  0.1923882328945493
  0.3888290680771935  0.0812674441577778  0.3763262616389229
  0.4017262307710113  0.1374702325829708  0.3041678755695615
  0.3524959572869292  0.1827667526546400  0.3258187597491228
  0.3055222852534218  0.1614831093236572  0.4088042859121960
  0.3260767346296395  0.1022020396797153  0.4408971465991915
  0.3738186057327458  0.1745239214997246  0.6375728427291322
  0.4122597970078172  0.1269662788032838  0.5682716612451654
  0.3635784198133222  0.0770629848783752  0.5703434514397430
  0.2912406076441739  0.0868153266800687  0.6400852808111438
  0.2963701995206208  0.1438789955874126  0.6794838373965990
  0.4186266251866223  0.1109913229521944  0.8733030929352688
  0.3776898766055367  0.1112190696377287  0.7928871920206396
  0.3115522800461157  0.1048714547585465  0.8177675740032251
  0.3076447897553402  0.1001762550834864  0.9201007717682145
  0.3715475787812623  0.1042521663674329  0.9500851175031678
  0.3941411447659033  0.4049358787478401  0.1109633164518679
  0.3735598378241674  0.3315241385359419  0.0607226964954291
  0.3198798314587175  0.3112823555557030  0.1018972387541901
  0.3024134532858528  0.3696780445145759  0.1800721061523267
  0.3447184862278421  0.4251473703698967  0.1871826355087949
  0.4239539803091492  0.3727246969146123  0.3671373140912773
  0.3767063037159690  0.3622242808214528  0.2908231955006674
  0.3133065102641399  0.3563228456451187  0.3217744962719312
  0.3175648511405484  0.3621329907348076  0.4236222582438973
  0.3835107384832794  0.3703715404251070  0.4482982529619861
  0.3958146335968609  0.3261234138188455  0.6198179169077047
  0.3948236607124763  0.4034247577454098  0.5703779780601120
  0.3377676061455731  0.4292175464743136  0.6035504378888914
  0.2992578947742532  0.3726956660018118  0.6742722633929791
  0.3315617527902220  0.3117177067747577  0.6856534947469995
  0.3982610630103796  0.3631314595353800  0.9046585202785402
  0.3911296853178007  0.4307139263500654  0.8430092606878017
  0.3334921375111888  0.4017526755668475  0.8127546916128439
  0.2989180635962774  0.3190836077983122  0.8530951854288137
  0.3363310161611380  0.2935404386225420  0.9062514353764829
  0.4012866594209966  0.6287419433196484  0.1564660705070313
  0.3887089576649961  0.6821514443235750  0.0835599421799932
  0.3316352579980646  0.6458087677426412  0.0614081798781289
  0.3052258710519143  0.5685168686985669  0.1165297188448021
  0.3443841720731792  0.5563607254352890  0.1729045177154806
  0.4012983939105809  0.6638088937626595  0.3750049817999315
  0.3455905052071727  0.6787827924122664  0.3023670796003183
  0.3031478760097042  0.6252236876554513  0.3165872905790383
  0.3290332738413642  0.5706512298279390  0.3962742046301642
  0.3861144860715863  0.5938194257860064  0.4311648543249877
  0.3787735624070241  0.6942555337441735  0.6277539647153537
  0.3488501436656164  0.6712177225673689  0.5439239152695008
  0.3477628220956733  0.6027390785098911  0.5583296785813253
  0.3741218943562659  0.5777698349934097  0.6512619486486543
  0.3972194276944556  0.6298151844486611  0.6904050206055248
  0.4059746042342623  0.6145700565118799  0.8835479101314828
  0.3778675021461598  0.6411187869737481  0.8008294907088144
  0.3116488241270933  0.6172446452366944  0.8085471734438890
  0.2954852126094623  0.5663786581604181  0.8931765831710131
  0.3487215287334730  0.5668551294511744  0.9388123775632923
  0.4051078448977110  0.9060066396252994  0.1196914107683664
  0.3857693954205039  0.8399465935122035  0.0591036153768946
  0.3270682503990530  0.8187915825243216  0.0932110462960462
  0.3046799042335140  0.8689942010559532  0.1751405685808087
  0.3497722331425244  0.9190676194725527  0.1932293522418402
  0.4102447879121086  0.8570236927191289  0.3506112073436350
  0.3343575726468920  0.8224437451590422  0.3096250597341150
  0.2915192031368522  0.8368022931632444  0.3624928587571923
  0.3350586534973704  0.8805820146659007  0.4403685716329868
  0.4056825900924738  0.8890038233794813  0.4366749234939725
  0.4063569242086960  0.8841501403823292  0.6561910387893404
  0.3913596045088039  0.9458241577101620  0.5908926639317875
  0.3327738614107404  0.9127190041732183  0.5668405093871918
  0.3061888602968932  0.8303066591155044  0.6156616318612232
  0.3482991924504052  0.8121091766373294  0.6678401987885261
  0.4196396404938460  0.8572064708116657  0.8797908338521183
  0.3958360059705774  0.8740756304635817  0.7932100210813525
  0.3339198761340829  0.9033411552799119  0.8101662156561786
  0.3174147558213773  0.9154385606260197  0.9066519615943559
  0.3673420737889346  0.8883009694881728  0.9484385049975843
  0.6384157532260989  0.1649588707370364  0.1102619281066741
  0.5656321141363778  0.1437500752011594  0.0574960438959290
  0.5454973812383803  0.0897695359295309  0.0974689443025554
  0.6023085205260053  0.0734113445453921  0.1771582716632060
  0.6577648741179672  0.1155344885206211  0.1861339643868681
  0.6126134578729580  0.1766160672370706  0.4043190401915623
  0.6753693856982572  0.1483271380057870  0.3430775361412330
  0.6371473773116757  0.0923006137551297  0.3244585310094135
  0.5476871538239086  0.0807727351146727  0.3721177849805063
  0.5334543791794487  0.1287005437973996  0.4196180990288815
  0.6529683297883464  0.0909497513696926  0.6314505202595280
  0.6059855956042807  0.0728476064252764  0.5539282413571598
  0.5580940442266228  0.1224727195529386  0.5640145940073938
  0.5700792391791430  0.1768005887768572  0.6467646631779905
  0.6253357738594508  0.1585271306925814  0.6869412140274502
  0.6554929146443566  0.1240477104871646  0.9060655815633794
  0.6254429650059364  0.1887727794751642  0.8492008646946597
  0.5681001632829087  0.1519050213920993  0.8292467092708147
  0.5574086862957405  0.0621986377741105  0.8722155291958118
  0.6074248701330530  0.0451645449433387  0.9175672582598919
  0.6064996994619670  0.4203715165985558  0.0861279175442808
  0.5334752394173982  0.3618954432140836  0.0786528467594315
  0.5594909916396165  0.3182442542389233  0.1260059110648634
  0.6474910281527378  0.3433778009484307  0.1665179814266449
  0.6770417959311515  0.4032150357618364  0.1433922395115973
  0.6653987855696477  0.3643861141588801  0.3780251464613278
  0.6422371150341005  0.3755211510298057  0.2909392267152601
  0.5724662780874789  0.3645876350274689  0.3017797191775715
  0.5494598838364043  0.3346857239344749  0.3941373393811256
  0.6020876008003576  0.3365207309419802  0.4397052090328232
  0.6542054388644016  0.3656970028236111  0.5798119687150664
  0.5978767277799528  0.4366285122393769  0.5577263451269188
  0.5547398278681800  0.4263405495682311  0.6112599267329366
  0.5778736627922081  0.3490903141061910  0.6700694301752895
  0.6369485020498499  0.3137133018866645  0.6522848349280911
  0.6501041951803339  0.4129355420292381  0.8805907402384476
  0.5954886439003965  0.4286974925499002  0.8073212982042658
  0.5569796415964924  0.3710450264757231  0.8174444470981409
  0.5808902797047968  0.3165573415122353  0.8958923236891982
  0.6367929399029664  0.3396719006741149  0.9334135759758685
  0.6500489907952334  0.6570358874564762  0.1184291786237707
  0.5820589045841396  0.6709589470443172  0.0565024257684451
  0.5466521012146336  0.6132371498521515  0.0747624578513157
  0.5880060150934350  0.5586433156359971  0.1454448308431630
  0.6487553409623134  0.5833703494309037  0.1727971064094091
  0.6789301691463512  0.6294469584596161  0.3639294938752418
  0.6357463056996469  0.6279136603480733  0.2841493239763601
  0.5703073454299711  0.6324561357232898  0.3107053011349007
  0.5689550274070816  0.6383123759085123  0.4134314703092620
  0.6338534542224947  0.6360837192626034  0.4416280579817203
  0.6456271931985412  0.6686824090937318  0.6185932582214085
  0.6520445040337515  0.6072877626216546  0.5506408734584803
  0.5941344336107249  0.5720405266307429  0.5715006298662738
  0.5467487393885995  0.6070098713466829  0.6492859176702047
  0.5757848164709610  0.6637810628354995  0.6796317939409992
  0.6130621495601735  0.6910820089929638  0.8680930144847041
  0.6184578377915111  0.6426826582332711  0.7924318876330708
  0.6215380238559655  0.5808168567098648  0.8239965868073973
  0.6171525067317285  0.5871006837406133  0.9259644626905971
  0.6124328147455835  0.6525401022459542  0.9498070555644669
  0.6550291116014459  0.8765223972700465  0.0798629428705702
  0.5972636072325863  0.8047198040038617  0.0647817589185686
  0.5539566152475854  0.8217038110669592  0.1163158130846405
  0.5794582949047811  0.9028225582247907  0.1682822821038074
  0.6391647285579785  0.9359283986484064  0.1461991869218330
  0.6441809034878734  0.9205072324836073  0.3597444888210083
  0.6488561589231930  0.8615225660988850  0.2896538271608469
  0.5927827793057994  0.8242630267277488  0.3122863413147934
  0.5509587793825175  0.8533877654372071  0.3953966529365944
  0.5786721411159577  0.9105825740646355  0.4250352876443065
  0.6542140336247166  0.9076724968703214  0.6266810041895304
  0.5993166414362782  0.9328664074161419  0.5557605036935095
  0.5562461341622467  0.8787114365309636  0.5627277481343536
  0.5790540270103915  0.8145469032606050  0.6348272560116880
  0.6365453057576236  0.8308670527438990  0.6730037131214195
  0.6654928217327454  0.8726273775024505  0.8657244911588653
  0.6260106038306793  0.8740246502356991  0.7843241377585002
  0.5592031084299240  0.8775379994854546  0.8085001272618683
  0.5533209893696885  0.8799638318983326  0.9097583518398177
  0.6162942036554346  0.8787388808493065  0.9418640777568118
  0.9132267061245770  0.1126694940738472  0.1542083000086539
  0.8946672993918809  0.0657062935850499  0.0782204476451908
  0.8356860936141712  0.1024862024630564  0.0639392682430020
  0.8138317289342422  0.1757560913208328  0.1273084390106401
  0.8568043908406592  0.1822561481157632  0.1812412422129761
  0.9014213412281483  0.1511249195103572  0.3553406278731198
  0.8802052689948533  0.0755575105092856  0.3096898159408268
  0.8236268853797365  0.0598737424362473  0.3496469046629510
  0.8055907700643076  0.1250798477238853  0.4235222328422739
  0.8496215809715960  0.1791281609799132  0.4272202645059781
  0.9232269087836672  0.1231310602297110  0.6273160251412871
  0.8835409816330148  0.1204715348242867  0.5461733009582183
  0.8169314105246065  0.1162794479176019  0.5703442070124610
  0.8113895925520052  0.1146563540846082  0.6728566627696844
  0.8748279097467681  0.1182412485151651  0.7037071030167812
  0.8913183801880550  0.1639194907761993  0.8639560417839586
  0.8136954668133934  0.1473071909057937  0.8164343993091124
  0.7980351764133272  0.0887998143976617  0.8516818241665611
  0.8638181273842523  0.0641784317140554  0.9229183514558252
  0.9183139722129530  0.1074003734305809  0.9323926443420725
  0.9036952409062298  0.4144334435163671  0.1211325727112062
  0.8419324315543605  0.4111298959230824  0.0519656779575078
  0.8083569331784393  0.3552490422432047  0.0781487308736530
  0.8448631987721402  0.3187472081895715  0.1612684402052856
  0.9007454310511424  0.3524728709051271  0.1888462450331005
  0.9057952449231608  0.3804262885293114  0.3396803004505678
  0.8517999627441207  0.3065600348582824  0.3211286320214176
  0.8080165277377265  0.3187659753482215  0.3738220879288437
  0.8274826173799205  0.3993917004239906  0.4278931591804212
  0.8853562294735020  0.4362088201349839  0.4094360579507343
  0.9128454983785026  0.3645526495234049  0.6268854765539790
  0.8684816068389205  0.3730375905672564  0.5479014970774498
  0.8041627057787294  0.3796019782874124  0.5768050910762724
  0.8036130482110228  0.3748869937037126  0.6770898507759384
  0.8681806523602710  0.3677806053780627  0.7055718344652384
  0.9074016199753455  0.3643533649027488  0.9150320352338575
  0.9074248453138456  0.4390432843257400  0.8604162180423774
  0.8473637825990596  0.4202427422472022  0.8286563238815691
  0.8047993484556545  0.3361179394485326  0.8589233490053269
  0.8393001325070754  0.3013735600030660  0.9093555705343642
  0.9327923462737310  0.6195910959537665  0.1226508040339031
  0.8893005817884089  0.6193259897124301  0.0434605449853003
  0.8236434906063915  0.6198466640060197  0.0705604841919273
  0.8228876059777204  0.6192743427777279  0.1730769194704070
  0.8876565785752311  0.6183309606521394  0.2013913683218308
  0.8962909090052555  0.6675098110392051  0.3677759448454195
  0.8248454054715948  0.6643616135059378  0.3086877195771072
  0.7992952362799270  0.6043106809670606  0.3353069714787498
  0.8496903332938566  0.5660151668195161  0.4092144328738921
  0.9068888164294667  0.6013928070748586  0.4312553489602181
  0.9262307916954664  0.6213989728369529  0.6023006113458274
  0.8639974507428859  0.6568399146787235  0.5439081869788309
  0.8136973332477626  0.6645729227122941  0.5917527206203003
  0.8369520328867106  0.6295525051205343  0.6820966925947237
  0.9050599174776068  0.6108866847354988  0.6907077076028957
  0.8919593877737361  0.6684187703273433  0.8861013877945946
  0.9156879438854442  0.6145318921781174  0.8150560202182076
  0.8592262655478454  0.5735548354009729  0.8219066791447571
  0.7956028056091393  0.5961718974474107  0.8963481249516829
  0.8146619214562392  0.6517784901729089  0.9345348378896721
  0.9083176730356605  0.9042754255324975  0.1116609364504100
  0.8413788643411505  0.9240113421964478  0.0505237808105934
  0.8021446894452090  0.8680377577088911  0.0673825579376019
  0.8410931478976018  0.8083912708397559  0.1355132809451417
  0.9038086256409024  0.8291634052021088  0.1628024801987432
  0.8558802100037683  0.9420331156726591  0.3658199700214494
  0.8519511077090627  0.8959684795238925  0.2878164754765514
  0.8536785198425231  0.8331165626073516  0.3176093035517613
  0.8578701862878678  0.8359868944570082  0.4196899645514185
  0.8597673577862111  0.9005870379903094  0.4456079890319407
  0.9063562840944401  0.8860069216786312  0.6638286948703799
  0.8811512614086786  0.9490993304795093  0.6027526357940022
  0.8243303030260988  0.9121231356077356  0.5808768094462620
  0.8103466218766369  0.8240860382441432  0.6254806916291789
  0.8572480147746316  0.8076724672016031  0.6742025975340671
  0.9051476403570171  0.8959296193489960  0.8547558366258232
  0.8741784756671882  0.8199707432218686  0.8119637071573105
  0.8198899664404299  0.8110666758515659  0.8553734509625006
  0.8098251915658641  0.8789655024485217  0.9262511956182857
  0.8588779615276697  0.9287097105272708  0.9290745022144260
  0.2289228348396765  0.9919708174743376  0.0064841360003028
  0.2329854977401050  0.9890963416799410  0.2638824958492098
  0.2256387259261524  0.9976866185099811  0.4972923812962682
  0.2298953341682053  0.9890709007219094  0.7514952192417287
  0.2241641396001582  0.2452333850623223  0.9985307287786962
  0.2359818484170849  0.2383430487502327  0.2567844223929061
  0.2280778293605059  0.2520356027101042  0.5268016132036722
  0.2217032733233294  0.2425472773864909  0.7619810913839578
  0.2294470355768472  0.4922109995138154  0.0009243965607644
  0.2330038635631059  0.4959100594911269  0.2541655879668144
  0.2317202668908909  0.4961749474303523  0.5033984503123949
  0.2332328066315584  0.4952076999829794  0.7545395629697755
  0.2321691600660013  0.7436162690719929  0.9942533171688697
  0.2290204844194852  0.7482175462025457  0.2422343084829501
  0.2288538407712334  0.7463654093946641  0.4942947037541268
  0.2299108099100865  0.7474730737668109  0.7465892912705039
  0.4788103178415229  0.9973691940471329  0.0010269570994401
  0.4845497172022383  0.9957170784184278  0.2546369610527400
  0.4794590445802556  0.0025946072208841  0.4919526198853252
  0.4813320141153363  0.9972716349322762  0.7468174243704225
  0.4808982036694298  0.2460221822708938  0.9950679716718958
  0.4842455136978044  0.2469658957205577  0.2442886706930286
  0.4770487283093214  0.2482567571425020  0.4984615422596376
  0.4770768167535016  0.2505452878466493  0.7488520874990739
  0.4787611615566653  0.4976890130533412  0.9956848929024286
  0.4818075597745329  0.4999387934120810  0.2479068203276879
  0.4837856377610162  0.5045275501340331  0.4897187882154613
  0.4846464092903527  0.5012306753578512  0.7455013720899285
  0.4802056835968549  0.7456023725029277  0.9836961866238668
  0.4852322187037727  0.7486320594756585  0.2402999198460726
  0.4822938193541394  0.7575196273174888  0.4960418617588102
  0.4840745184063182  0.7571023220338815  0.7537804271725901
  0.7323676134225782  0.0009346571175440  0.0017487334152757
  0.7341429540936497  0.9922809356073671  0.2367751958667790
  0.7340781070492370  0.9972864194234395  0.4932749856485107
  0.7283843420719913  0.9976768029279838  0.7439650811687198
  0.7323918536461300  0.2454090886563222  0.9985325477446801
  0.7340072459626543  0.2502428716001943  0.2484405677362738
  0.7309022292867426  0.2498438434567552  0.5026390489360719
  0.7308373867912348  0.2520265020857042  0.7504389178550609
  0.7295227862358216  0.4962394665576387  0.9978090248426058
  0.7354311114800459  0.4896950473320892  0.2498955728926983
  0.7350238282606938  0.5002152706117977  0.4992349573011268
  0.7271450810547717  0.4981471593757374  0.7446209070977611
  0.7297352755419338  0.7454074545800040  0.9948650413277040
  0.7282609516899280  0.7552965922266969  0.2417715530976081
  0.7308240812261627  0.7549295617997590  0.4886279356976382
  0.7392968368272680  0.7438531666236615  0.7432541412043668
  0.9912085941801663  0.9954721777815566  0.9980961322059653
  0.9813701599132337  0.9891891737027353  0.2469073422311154
  0.9810460047216264  0.9936733919791002  0.4938618889650414
  0.9785894711973597  0.9911028438698125  0.7474023847664266
  0.9830588487154408  0.2379920484419204  0.0008136540860040
  0.9816765177304340  0.2414166855659909  0.2523458828124966
  0.9814306384677058  0.2465714047725687  0.5110454305459053
  0.9790612109796463  0.2476521625610259  0.7486029223065528
  0.9817234734357106  0.4922721714463262  0.0003848080057073
  0.9825783402810142  0.4909228520731944  0.2576093469221580
  0.9865847152588668  0.5031662938058038  0.5136152801501673
  0.9823674282849326  0.4983811858587118  0.7488737584598570
  0.9783348414442485  0.7445002996947515  0.0041735396251693
  0.9837384084709180  0.7440472969370423  0.2428646167292460
  0.9795921062721046  0.7593688029803679  0.4982626487444133
  0.9803121231801357  0.7377769914647254  0.7533779509121530
  0.1222043917461742  0.1324055776947782  0.1224165895250227
  0.1212218737866407  0.1170953767695018  0.3753825194134306
  0.1239117194986981  0.1240659473858873  0.6270611450073290
  0.1163621413364032  0.1257753735342172  0.8807885484377245
  0.1187680102185606  0.3649156116505010  0.1296462116052512
  0.1180092644968215  0.3800399639732156  0.3794364717731369
  0.1194037858304101  0.3609954555757433  0.6364577547893487
  0.1136272596782963  0.3775537341295435  0.8736771075846297
  0.1244291492668181  0.6096253626626597  0.1210127178377409
  0.1180945296530483  0.6223763283864446  0.3816851427747846
  0.1219217559799163  0.6334313934697454  0.6257058778871589
  0.1230803191435340  0.6191811906960458  0.8624334387382165
  0.1220483822226989  0.8615196749051994  0.1066779765897172
  0.1145204889413987  0.8801194539986057  0.3648186569364464
  0.1001019209155517  0.8868320125369419  0.6286010366970101
  0.1315375316826239  0.8720699982589780  0.8704108629169834
  0.3648000658079821  0.1216304392062727  0.1313186447114186
  0.3647143688378232  0.1177619162207842  0.3728430293536134
  0.3549707898934982  0.1373033661357740  0.6245474538034663
  0.3743829149152855  0.1074693171888552  0.8714598323455799
  0.3608409720092808  0.3789564447762346  0.1232873095211283
  0.3800259593554276  0.3672877728571026  0.3694666650668470
  0.3647351778147316  0.3562765889457729  0.6275003507169370
  0.3654297736048013  0.3619322388236649  0.8755317680585281
  0.3678057389717259  0.6201500716882814  0.1293442971960419
  0.3668168952840732  0.6374182368836290  0.3676381674607169
  0.3707439176524268  0.6524947649260516  0.6183751571388322
  0.3644618909332063  0.6059464667534630  0.8707408055130986
  0.3691520168557844  0.8810464487593478  0.1252289947634397
  0.3711067229834689  0.8590633026685048  0.3708347110374622
  0.3713377019746499  0.8793123702170975  0.6299976103274275
  0.3814140630293438  0.8777300799686351  0.8712796247811317
  0.6125512241433422  0.1313559592592784  0.1211266142923897
  0.6044325301626223  0.1404556697524690  0.3814917228061160
  0.6171975072219488  0.1147315537700531  0.6211125555154525
  0.6180622307976035  0.1172773538527590  0.8838361555115672
  0.6053002670730946  0.3844013651693586  0.1104966118018975
  0.6230588610088951  0.3592435263947759  0.3661159706463692
  0.6186248345699610  0.3744055188674403  0.6041629150987520
  0.6174633169187016  0.3850309298469574  0.8709967959046435
  0.6168392938059711  0.6284185340186906  0.1150366630396726
  0.6346737492487563  0.6322128042038403  0.3629775656114928
  0.6152384390151411  0.6369638870114185  0.6154431146926822
  0.6157666480354699  0.6477336758676969  0.8710688520627137
  0.6194011180246374  0.8709118016524584  0.1051103995330352
  0.6149540613158839  0.8877435205674855  0.3573411930673823
  0.6193699141398386  0.8831125878416799  0.6155136732336930
  0.6212564792987787  0.8750453339456485  0.8630793970671927
  0.8776349130452804  0.1233305456774897  0.1305524970468484
  0.8664106713424027  0.1275045134288547  0.3679548673124111
  0.8790481386786294  0.1200252906856678  0.6249623869706348
  0.8672640227826167  0.1284751777252928  0.8731254776288058
  0.8727907995939564  0.3831110176261500  0.1204367165263332
  0.8704041248112346  0.3718899047400717  0.3644764625061527
  0.8686853882952196  0.3692563116041219  0.6267645330083472
  0.8746157156343485  0.3698617116500287  0.8863336490682888
  0.8884661719434910  0.6197255383805037  0.1223599088711817
  0.8675393486278972  0.6344012187723532  0.3695173613748162
  0.8855004912013035  0.6314300682911073  0.6163002224183257
  0.8658780841118212  0.6347201283368582  0.8754774077202854
  0.8733802187244403  0.8777418227722477  0.1076081294063346
  0.8558485148007250  0.8985619550100702  0.3668325937822142
  0.8704534983295030  0.8790533474988838  0.6393032048564226
  0.8688389427182147  0.8756123264295969  0.8693435403272816
  0.2313250525144314  0.9945056581653055  0.1312361617904290
  0.2245859299704909  0.1175017451277676  0.9946858644924884
  0.1069815836892440  0.9865688853146173  0.2511099331067980
  0.2306633285021107  0.1122087512056950  0.2531071253725382
  0.2301267529758154  0.0029835957711155  0.6215901772382475
  0.1039732651771614  0.9719854416224031  0.5071391538146937
  0.2140319565030926  0.1279782524837486  0.4991648047389001
  0.2459560617264376  0.9895961084277972  0.8756529969255703
  0.1046575046612149  0.9893402207084390  0.7368475795806377
  0.2186706297289614  0.1156680748213733  0.7606417470704218
  0.2331313419412272  0.2496936020241413  0.1200228745348379
  0.2398032104987024  0.3691439360626593  0.9890480651429083
  0.2539862723896845  0.2469260552487539  0.3747105422389019
  0.1070273396074710  0.2281834679710276  0.2520963960635351
  0.2199948457999526  0.3654209134166866  0.2548022950825650
  0.1052419014526031  0.2646956149444821  0.4982579124189767
  0.2332333718487692  0.3730869035220128  0.4884025663044672
  0.2351140132862402  0.3679939766357214  0.7714431214024343
  0.2142534035346451  0.4873883111950039  0.1220571794235942
  0.1055544630024136  0.4907770101084687  0.9808156845116643
  0.2369382032140819  0.6199296076285036  0.0136577960200043
  0.2498080523950318  0.5005988950888459  0.3754467998270571
  0.1094241221702760  0.4980487804401129  0.2747159124299632
  0.2258554442959385  0.6188600397118935  0.2378552759659488
  0.2308227662469313  0.4716573839449875  0.6264207282723012
  0.2200981945082595  0.6233684081271310  0.4963644033668999
  0.1079961230620180  0.4756383826715055  0.7445243543656137
  0.2268165699225005  0.6189192222821346  0.7422023124265487
  0.2414211625411033  0.7617586922686197  0.1165380603121044
  0.1046045719366359  0.7394057475152591  0.9910221025384067
  0.2263376283826689  0.8691219286475316  0.9897925238996051
  0.2141652205127690  0.7455874642775088  0.3662820606089542
  0.1064347331363016  0.7374604928791012  0.2218418072845588
  0.2361085030575145  0.7434979538950104  0.6185720544858142
  0.1053139791622844  0.7712505062593645  0.5079425939715906
  0.2519775010586657  0.8761338233438010  0.5026784272459288
  0.2192452907228618  0.7405949701059831  0.8678111452842618